**
** Heading +++++++++++++++++++++++++++++++++++++++++++++++++
**
*Heading
Hash: FU7FqNXE, Date: 09/16/2026, Unit system: MM_TON_S_C
zones_pipe_1m.pmx
Check split_QUADs method
pyBEM tests | multi-zone implementation:
circular pipe with surfaces for BCs (vels & impedance)
Generic test model to calc open ends and
CASE 1: PRES @ INLET & rigid OUTLET | A quarter-wave pipe.
----------------------------------------
**
** Nodes +++++++++++++++++++++++++++++++++++++++++++++++++++
**
*Node
1, 0.00000000E+000, 0.00000000E+000, 5.00000000E+001
2, 0.00000000E+000, 0.00000000E+000, -5.00000000E+001
3, 5.00000000E+002, 0.00000000E+000, -5.00000000E+001
4, 5.00000000E+002, 0.00000000E+000, 5.00000000E+001
5, 0.00000000E+000, 0.00000000E+000, 2.51000000E+001
6, 0.00000000E+000, 0.00000000E+000, -1.30000000E+000
7, 0.00000000E+000, 0.00000000E+000, -2.58000000E+001
8, 0.00000000E+000, 2.43625063E+001, -4.36631227E+001
9, 0.00000000E+000, 4.27953134E+001, -2.58565495E+001
10, 0.00000000E+000, 4.99960522E+001, -6.28301994E-001
11, 0.00000000E+000, 4.31961709E+001, 2.51811601E+001
12, 0.00000000E+000, 2.40876837E+001, 4.38153340E+001
13, 5.00000000E+002, 0.00000000E+000, -2.52000000E+001
14, 5.00000000E+002, 0.00000000E+000, -7.00000000E-001
15, 5.00000000E+002, 0.00000000E+000, 2.56000000E+001
16, 5.00000000E+002, 2.38119102E+001, 4.39658155E+001
17, 5.00000000E+002, 4.23003553E+001, 2.66585810E+001
18, 5.00000000E+002, 4.99753280E+001, 1.57053795E+000
19, 5.00000000E+002, 4.35863703E+001, -2.44995576E+001
20, 5.00000000E+002, 2.65255592E+001, -4.23838968E+001
21, 5.00000000E+002, -2.50453313E+001, -4.32750665E+001
22, 5.00000000E+002, -4.27953134E+001, -2.58565495E+001
23, 5.00000000E+002, -5.00000000E+001, -6.10000000E-015
24, 5.00000000E+002, -4.38907913E+001, 2.39499151E+001
25, 5.00000000E+002, -2.55871500E+001, 4.29569291E+001
26, 4.72000000E+002, 0.00000000E+000, 5.00000000E+001
27, 4.45000000E+002, 0.00000000E+000, 5.00000000E+001
28, 4.17500000E+002, 0.00000000E+000, 5.00000000E+001
29, 3.90000000E+002, 0.00000000E+000, 5.00000000E+001
30, 3.62000000E+002, 0.00000000E+000, 5.00000000E+001
31, 3.34500000E+002, 0.00000000E+000, 5.00000000E+001
32, 3.07000000E+002, 0.00000000E+000, 5.00000000E+001
33, 2.80000000E+002, 0.00000000E+000, 5.00000000E+001
34, 2.54500000E+002, 0.00000000E+000, 5.00000000E+001
35, 2.29000000E+002, 0.00000000E+000, 5.00000000E+001
36, 2.03000000E+002, 0.00000000E+000, 5.00000000E+001
37, 1.76500000E+002, 0.00000000E+000, 5.00000000E+001
38, 1.51000000E+002, 0.00000000E+000, 5.00000000E+001
39, 1.26000000E+002, 0.00000000E+000, 5.00000000E+001
40, 1.00500000E+002, 0.00000000E+000, 5.00000000E+001
41, 7.50000000E+001, 0.00000000E+000, 5.00000000E+001
42, 5.00000000E+001, 0.00000000E+000, 5.00000000E+001
43, 2.50000000E+001, 0.00000000E+000, 5.00000000E+001
44, 4.74500000E+002, 0.00000000E+000, -5.00000000E+001
45, 4.49500000E+002, 0.00000000E+000, -5.00000000E+001
46, 4.24000000E+002, 0.00000000E+000, -5.00000000E+001
47, 3.98000000E+002, 0.00000000E+000, -5.00000000E+001
48, 3.72000000E+002, 0.00000000E+000, -5.00000000E+001
49, 3.46000000E+002, 0.00000000E+000, -5.00000000E+001
50, 3.19500000E+002, 0.00000000E+000, -5.00000000E+001
51, 2.92500000E+002, 0.00000000E+000, -5.00000000E+001
52, 2.65000000E+002, 0.00000000E+000, -5.00000000E+001
53, 2.39000000E+002, 0.00000000E+000, -5.00000000E+001
54, 2.14000000E+002, 0.00000000E+000, -5.00000000E+001
55, 1.88000000E+002, 0.00000000E+000, -5.00000000E+001
56, 1.61000000E+002, 0.00000000E+000, -5.00000000E+001
57, 1.34000000E+002, 0.00000000E+000, -5.00000000E+001
58, 1.06500000E+002, 0.00000000E+000, -5.00000000E+001
59, 8.10000000E+001, 0.00000000E+000, -5.00000000E+001
60, 5.45000000E+001, 0.00000000E+000, -5.00000000E+001
61, 2.70000000E+001, 0.00000000E+000, -5.00000000E+001
62, 0.00000000E+000, -2.35351966E+001, 4.41145613E+001
63, 0.00000000E+000, -4.31961709E+001, 2.51811601E+001
64, 0.00000000E+000, -4.99938316E+001, 7.85365866E-001
65, 0.00000000E+000, -4.37394442E+001, -2.42252145E+001
66, 0.00000000E+000, -2.53167404E+001, -4.31168489E+001
67, 0.00000000E+000, 1.73753627E+001, 2.05623502E+001
68, 0.00000000E+000, 1.93521601E+001, -5.30272233E+000
69, 0.00000000E+000, 2.94921038E+001, 7.87421372E+000
70, 5.00000000E+002, 1.68494618E+001, -2.46557220E+001
71, 5.00000000E+002, 2.47595112E+001, -6.27302583E+000
72, 5.00000000E+002, -1.74717360E+001, -2.08953358E+001
73, 5.00000000E+002, -3.08911226E+001, -1.56074811E+001
74, 5.00000000E+002, -3.25555583E+001, -2.86942499E-001
75, 5.00000000E+002, -3.14442956E+001, 1.47595029E+001
76, 5.00000000E+002, -1.78938766E+001, 2.06670668E+001
77, 5.00000000E+002, -1.67373149E+001, -3.30104088E-001
78, 4.72390416E+002, 2.42124470E+001, 4.37465131E+001
79, 4.45112383E+002, 2.43538585E+001, 4.36679468E+001
80, 4.17765291E+002, 2.44052650E+001, 4.36392374E+001
81, 3.90370861E+002, 2.44241417E+001, 4.36286752E+001
82, 3.62860508E+002, 2.44306058E+001, 4.36250559E+001
83, 3.35535775E+002, 2.44321295E+001, 4.36242025E+001
84, 3.08401667E+002, 2.44311804E+001, 4.36247341E+001
85, 2.81672071E+002, 2.44290752E+001, 4.36259130E+001
86, 2.55583688E+002, 2.44279712E+001, 4.36265312E+001
87, 2.29687652E+002, 2.44277396E+001, 4.36266608E+001
88, 2.03705944E+002, 2.44270866E+001, 4.36270265E+001
89, 1.77655851E+002, 2.44258103E+001, 4.36277411E+001
90, 1.51944704E+002, 2.44264383E+001, 4.36273895E+001
91, 1.26478246E+002, 2.44332351E+001, 4.36235833E+001
92, 1.00980091E+002, 2.44503183E+001, 4.36140108E+001
93, 7.55505364E+001, 2.44772231E+001, 4.35989168E+001
94, 5.03130948E+001, 2.44978912E+001, 4.35873070E+001
95, 2.51415328E+001, 2.44465398E+001, 4.36161288E+001
96, 4.72670173E+002, 4.26006705E+001, 2.61759981E+001
97, 4.73023894E+002, 4.99836428E+001, 1.27884625E+000
98, 4.73468392E+002, 4.37437925E+001, -2.42173619E+001
99, 4.74003836E+002, 2.58077307E+001, -4.28247713E+001
100, 4.48098485E+002, 2.56218996E+001, -4.29362115E+001
101, 4.22049461E+002, 2.55675119E+001, -4.29686204E+001
102, 3.95791700E+002, 2.55491438E+001, -4.29795446E+001
103, 3.69445010E+002, 2.55420929E+001, -4.29837352E+001
104, 3.43013539E+002, 2.55396777E+001, -4.29851703E+001
105, 3.16391457E+002, 2.55393117E+001, -4.29853877E+001
106, 2.89625732E+002, 2.55391670E+001, -4.29854737E+001
107, 2.62902192E+002, 2.55389473E+001, -4.29856042E+001
108, 2.36745734E+002, 2.55391431E+001, -4.29854879E+001
109, 2.10918711E+002, 2.55398789E+001, -4.29850507E+001
110, 1.84788028E+002, 2.55413930E+001, -4.29841511E+001
111, 1.58299624E+002, 2.55406533E+001, -4.29845906E+001
112, 1.31743323E+002, 2.55329610E+001, -4.29891603E+001
113, 1.05214514E+002, 2.55082250E+001, -4.30038423E+001
114, 7.92101932E+001, 2.54518905E+001, -4.30372080E+001
115, 5.29862592E+001, 2.53289845E+001, -4.31096572E+001
116, 2.64550275E+001, 2.50545532E+001, -4.32697280E+001
117, 2.59517216E+001, 4.33348315E+001, -2.49417798E+001
118, 2.55892455E+001, 4.99990997E+001, 3.00044806E-001
119, 2.53344245E+001, 4.29749546E+001, 2.55568635E+001
120, 4.45506090E+002, 4.27124720E+001, 2.59931671E+001
121, 4.18356968E+002, 4.27559405E+001, 2.59216040E+001
122, 3.91181322E+002, 4.27731006E+001, 2.58932784E+001
123, 3.63980986E+002, 4.27795289E+001, 2.58826564E+001
124, 3.36877367E+002, 4.27813496E+001, 2.58796469E+001
125, 3.09946614E+002, 4.27810269E+001, 2.58801803E+001
126, 2.83297550E+002, 4.27798749E+001, 2.58820847E+001
127, 2.56999919E+002, 4.27789734E+001, 2.58835746E+001
128, 2.30910600E+002, 4.27784007E+001, 2.58845212E+001
129, 2.04885640E+002, 4.27777302E+001, 2.58856291E+001
130, 1.78894994E+002, 4.27771489E+001, 2.58865898E+001
131, 1.53042855E+002, 4.27789538E+001, 2.58836070E+001
132, 1.27331113E+002, 4.27875368E+001, 2.58694163E+001
133, 1.01702167E+002, 4.28085274E+001, 2.58346663E+001
134, 7.61740921E+001, 4.28470438E+001, 2.57707360E+001
135, 5.07386101E+001, 4.29050981E+001, 2.56739665E+001
136, 4.46995801E+002, 4.37410329E+001, -2.42223460E+001
137, 4.46176371E+002, 4.99869305E+001, 1.14314367E+000
138, 4.20493183E+002, 4.37249628E+001, -2.42513428E+001
139, 3.93898987E+002, 4.37147720E+001, -2.42697077E+001
140, 3.67242131E+002, 4.37098042E+001, -2.42786535E+001
141, 3.40553361E+002, 4.37080044E+001, -2.42818935E+001
142, 3.13850390E+002, 4.37078187E+001, -2.42822277E+001
143, 2.87199216E+002, 4.37081360E+001, -2.42816566E+001
144, 2.60709563E+002, 4.37084593E+001, -2.42810747E+001
145, 2.34502125E+002, 4.37089140E+001, -2.42802561E+001
146, 2.08452733E+002, 4.37096150E+001, -2.42789941E+001
147, 1.82340528E+002, 4.37101884E+001, -2.42779619E+001
148, 1.56135938E+002, 4.37084119E+001, -2.42811599E+001
149, 1.29941197E+002, 4.36996050E+001, -2.42970065E+001
150, 1.03840881E+002, 4.36755374E+001, -2.43402430E+001
151, 7.79341166E+001, 4.36238602E+001, -2.44327409E+001
152, 5.20004310E+001, 4.35229422E+001, -2.46120600E+001
153, 5.12913177E+001, 4.99961127E+001, 6.23473899E-001
154, 4.19324373E+002, 4.99883904E+001, 1.07741589E+000
155, 3.92431127E+002, 4.99890424E+001, 1.04672661E+000
156, 3.65511955E+002, 4.99893169E+001, 1.03353458E+000
157, 3.38627232E+002, 4.99894092E+001, 1.02906208E+000
158, 3.11835264E+002, 4.99894153E+001, 1.02876686E+000
159, 2.85209771E+002, 4.99893892E+001, 1.03003192E+000
160, 2.58812299E+002, 4.99893620E+001, 1.03135075E+000
161, 2.32626372E+002, 4.99893364E+001, 1.03259391E+000
162, 2.06553403E+002, 4.99893077E+001, 1.03398277E+000
163, 1.80506381E+002, 4.99893019E+001, 1.03425934E+000
164, 1.54496654E+002, 4.99894267E+001, 1.02821023E+000
165, 1.28564201E+002, 4.99898873E+001, 1.00556627E+000
166, 1.02733666E+002, 4.99909726E+001, 9.50085139E-001
167, 7.70306057E+001, 4.99930278E+001, 8.34968804E-001
168, 0.00000000E+000, -1.73538817E+001, 2.37751624E+001
169, 0.00000000E+000, -2.86520764E+001, 1.34128691E+001
170, 0.00000000E+000, -3.58138772E+001, 9.59807644E-001
171, 0.00000000E+000, -2.84904989E+001, -1.12140856E+001
172, 0.00000000E+000, -1.68759601E+001, -2.37158502E+001
173, 0.00000000E+000, -1.83019811E+001, 3.29214635E+000
174, 4.74461600E+002, -2.48701274E+001, -4.33759929E+001
175, 4.48967550E+002, -2.48491059E+001, -4.33880391E+001
176, 4.23258956E+002, -2.48525207E+001, -4.33860832E+001
177, 3.97283239E+002, -2.48580225E+001, -4.33829312E+001
178, 3.71143584E+002, -2.48621099E+001, -4.33805889E+001
179, 3.44852487E+002, -2.48640807E+001, -4.33794593E+001
180, 3.18313168E+002, -2.48645501E+001, -4.33791903E+001
181, 2.91586688E+002, -2.48641085E+001, -4.33794434E+001
182, 2.64853918E+002, -2.48633723E+001, -4.33798653E+001
183, 2.38652655E+002, -2.48604099E+001, -4.33815631E+001
184, 2.12770194E+002, -2.48556736E+001, -4.33842770E+001
185, 1.86559813E+002, -2.48516236E+001, -4.33865971E+001
186, 1.59951755E+002, -2.48479118E+001, -4.33887230E+001
187, 1.33247411E+002, -2.48458279E+001, -4.33899163E+001
188, 1.06508554E+002, -2.48523845E+001, -4.33861612E+001
189, 8.02501267E+001, -2.48784484E+001, -4.33712209E+001
190, 5.37159268E+001, -2.49405956E+001, -4.33355130E+001
191, 2.68338791E+001, -2.50706573E+001, -4.32603992E+001
192, 4.74239210E+002, -4.30319572E+001, -2.54607671E+001
193, 4.73889165E+002, -4.99985702E+001, -3.78120069E-001
194, 4.73461135E+002, -4.36430120E+001, 2.43985144E+001
195, 4.72879202E+002, -2.53903662E+001, 4.30735337E+001
196, 4.46003482E+002, -2.53107151E+001, 4.31203861E+001
197, 4.18994041E+002, -2.52788793E+001, 4.31390572E+001
198, 3.91901370E+002, -2.52665907E+001, 4.31462559E+001
199, 3.64592559E+002, -2.52603755E+001, 4.31498949E+001
200, 3.37382167E+002, -2.52579123E+001, 4.31513368E+001
201, 3.10300439E+002, -2.52572388E+001, 4.31517310E+001
202, 2.83576175E+002, -2.52571081E+001, 4.31518075E+001
203, 2.57466763E+002, -2.52579884E+001, 4.31512922E+001
204, 2.31539177E+002, -2.52604078E+001, 4.31498760E+001
205, 2.05492484E+002, -2.52633693E+001, 4.31481422E+001
206, 1.79327565E+002, -2.52663033E+001, 4.31464242E+001
207, 1.53464302E+002, -2.52682406E+001, 4.31452896E+001
208, 1.27859743E+002, -2.52691097E+001, 4.31447806E+001
209, 1.02190237E+002, -2.52587465E+001, 4.31508485E+001
210, 7.65246673E+001, -2.52170092E+001, 4.31752527E+001
211, 5.09788854E+001, -2.50912979E+001, 4.32484308E+001
212, 2.54805284E+001, -2.47299088E+001, 4.34560883E+001
213, 2.59309880E+001, -4.33598265E+001, 2.48983020E+001
214, 2.62910075E+001, -4.99999999E+001, -2.62525638E-003
215, 2.65792981E+001, -4.33338686E+001, -2.49434527E+001
216, 4.48404296E+002, -4.30869519E+001, -2.53675891E+001
217, 4.22448336E+002, -4.31041036E+001, -2.53384343E+001
218, 3.96320475E+002, -4.31116393E+001, -2.53256108E+001
219, 3.69985545E+002, -4.31161694E+001, -2.53178976E+001
220, 3.43505033E+002, -4.31183089E+001, -2.53142537E+001
221, 3.16919600E+002, -4.31190015E+001, -2.53130739E+001
222, 2.90321477E+002, -4.31188149E+001, -2.53133918E+001
223, 2.63828656E+002, -4.31176919E+001, -2.53153046E+001
224, 2.37562487E+002, -4.31150970E+001, -2.53197238E+001
225, 2.11403239E+002, -4.31116156E+001, -2.53256511E+001
226, 1.85127631E+002, -4.31085859E+001, -2.53308078E+001
227, 1.58709472E+002, -4.31066218E+001, -2.53341500E+001
228, 1.32279950E+002, -4.31061371E+001, -2.53349748E+001
229, 1.05860290E+002, -4.31134077E+001, -2.53226002E+001
230, 7.95412925E+001, -4.31374141E+001, -2.52816832E+001
231, 5.31144479E+001, -4.31958798E+001, -2.51816593E+001
232, 4.47030063E+002, -4.35759136E+001, 2.45181515E+001
233, 4.47777450E+002, -4.99983016E+001, -4.12113987E-001
234, 4.20435955E+002, -4.35498309E+001, 2.45644505E+001
235, 3.93654672E+002, -4.35361403E+001, 2.45887066E+001
236, 3.66750341E+002, -4.35297999E+001, 2.45999292E+001
237, 3.39832978E+002, -4.35272166E+001, 2.46044999E+001
238, 3.12997365E+002, -4.35264290E+001, 2.46058931E+001
239, 2.86380743E+002, -4.35265682E+001, 2.46056469E+001
240, 2.60070102E+002, -4.35276810E+001, 2.46036784E+001
241, 2.33921463E+002, -4.35298750E+001, 2.45997965E+001
242, 2.07774511E+002, -4.35323982E+001, 2.45953309E+001
243, 1.81591060E+002, -4.35339902E+001, 2.45925131E+001
244, 1.55651644E+002, -4.35412554E+001, 2.45796476E+001
245, 1.29740062E+002, -4.35453972E+001, 2.45723092E+001
246, 1.03817173E+002, -4.35427862E+001, 2.45769357E+001
247, 7.79066594E+001, -4.35261684E+001, 2.46063542E+001
248, 5.19182628E+001, -4.34641146E+001, 2.47157994E+001
249, 5.26200793E+001, -4.99992615E+001, -2.71755035E-001
250, 4.21571853E+002, -4.99984073E+001, -3.99079160E-001
251, 3.95066930E+002, -4.99985809E+001, -3.76711978E-001
252, 3.68459284E+002, -4.99986683E+001, -3.64915462E-001
253, 3.41781594E+002, -4.99987068E+001, -3.59608401E-001
254, 3.15106644E+002, -4.99987193E+001, -3.57859824E-001
255, 2.88532034E+002, -4.99987158E+001, -3.58358154E-001
256, 2.62128380E+002, -4.99986966E+001, -3.61020151E-001
257, 2.35875983E+002, -4.99986620E+001, -3.65790765E-001
258, 2.09671373E+002, -4.99986225E+001, -3.71147054E-001
259, 1.83423991E+002, -4.99985992E+001, -3.74270822E-001
260, 1.57338100E+002, -4.99984906E+001, -3.88510745E-001
261, 1.31182676E+002, -4.99984396E+001, -3.95013550E-001
262, 1.05009287E+002, -4.99985059E+001, -3.86538055E-001
263, 7.88448522E+001, -4.99987748E+001, -3.50028266E-001
264, 5.00000000E+002, 0.00000000E+000, 5.00000000E+001
265, 5.00000000E+002, 0.00000000E+000, -5.00000000E+001
266, 1.00000000E+003, 0.00000000E+000, 5.00000000E+001
267, 1.00000000E+003, 0.00000000E+000, -5.00000000E+001
268, 5.00000000E+002, 2.36736702E+001, 4.40404057E+001
269, 5.00000000E+002, 4.33535351E+001, 2.49092553E+001
270, 5.00000000E+002, 4.99516467E+001, -2.19840592E+000
271, 5.00000000E+002, 4.28763328E+001, -2.57219767E+001
272, 5.00000000E+002, 2.49092553E+001, -4.33535351E+001
273, 5.00000000E+002, 0.00000000E+000, -2.35000000E+001
274, 5.00000000E+002, 0.00000000E+000, 3.40000000E+000
275, 5.00000000E+002, 0.00000000E+000, 2.69000000E+001
276, 5.00000000E+002, -2.57219767E+001, -4.28763328E+001
277, 5.00000000E+002, -4.45503262E+001, -2.26995250E+001
278, 5.00000000E+002, -4.99753280E+001, 1.57053795E+000
279, 5.00000000E+002, -4.26320082E+001, 2.61249282E+001
280, 5.00000000E+002, -2.36736702E+001, 4.40404057E+001
281, 9.70500000E+002, 0.00000000E+000, 5.00000000E+001
282, 9.42000000E+002, 0.00000000E+000, 5.00000000E+001
283, 9.13500000E+002, 0.00000000E+000, 5.00000000E+001
284, 8.86000000E+002, 0.00000000E+000, 5.00000000E+001
285, 8.59000000E+002, 0.00000000E+000, 5.00000000E+001
286, 8.31000000E+002, 0.00000000E+000, 5.00000000E+001
287, 8.03000000E+002, 0.00000000E+000, 5.00000000E+001
288, 7.75000000E+002, 0.00000000E+000, 5.00000000E+001
289, 7.47500000E+002, 0.00000000E+000, 5.00000000E+001
290, 7.18500000E+002, 0.00000000E+000, 5.00000000E+001
291, 6.89500000E+002, 0.00000000E+000, 5.00000000E+001
292, 6.61000000E+002, 0.00000000E+000, 5.00000000E+001
293, 6.32500000E+002, 0.00000000E+000, 5.00000000E+001
294, 6.04000000E+002, 0.00000000E+000, 5.00000000E+001
295, 5.78000000E+002, 0.00000000E+000, 5.00000000E+001
296, 5.52000000E+002, 0.00000000E+000, 5.00000000E+001
297, 5.26000000E+002, 0.00000000E+000, 5.00000000E+001
298, 1.00000000E+003, 2.36736702E+001, -4.40404057E+001
299, 1.00000000E+003, 4.23003553E+001, -2.66585810E+001
300, 1.00000000E+003, 4.99287091E+001, -2.66908449E+000
301, 1.00000000E+003, 4.52413526E+001, 2.12889646E+001
302, 1.00000000E+003, 2.73197173E+001, 4.18764020E+001
303, 9.74500000E+002, 0.00000000E+000, -5.00000000E+001
304, 9.49000000E+002, 0.00000000E+000, -5.00000000E+001
305, 9.23000000E+002, 0.00000000E+000, -5.00000000E+001
306, 8.96500000E+002, 0.00000000E+000, -5.00000000E+001
307, 8.69500000E+002, 0.00000000E+000, -5.00000000E+001
308, 8.41500000E+002, 0.00000000E+000, -5.00000000E+001
309, 8.11500000E+002, 0.00000000E+000, -5.00000000E+001
310, 7.82000000E+002, 0.00000000E+000, -5.00000000E+001
311, 7.52500000E+002, 0.00000000E+000, -5.00000000E+001
312, 7.23000000E+002, 0.00000000E+000, -5.00000000E+001
313, 6.93500000E+002, 0.00000000E+000, -5.00000000E+001
314, 6.64000000E+002, 0.00000000E+000, -5.00000000E+001
315, 6.35500000E+002, 0.00000000E+000, -5.00000000E+001
316, 6.07000000E+002, 0.00000000E+000, -5.00000000E+001
317, 5.79000000E+002, 0.00000000E+000, -5.00000000E+001
318, 5.51000000E+002, 0.00000000E+000, -5.00000000E+001
319, 5.25000000E+002, 0.00000000E+000, -5.00000000E+001
320, 1.00000000E+003, 0.00000000E+000, 2.30000000E+001
321, 1.00000000E+003, 0.00000000E+000, -2.40000000E+000
322, 1.00000000E+003, 0.00000000E+000, -2.63000000E+001
323, 1.00000000E+003, -2.71880241E+001, 4.19620226E+001
324, 1.00000000E+003, -4.51742482E+001, 2.14309892E+001
325, 1.00000000E+003, -4.99013364E+001, -3.13952598E+000
326, 1.00000000E+003, -4.18764020E+001, -2.73197173E+001
327, 1.00000000E+003, -2.38119102E+001, -4.39658155E+001
328, 5.00000000E+002, 1.74725743E+001, 2.41355854E+001
329, 5.00000000E+002, 2.17926412E+001, 2.24932990E+000
330, 5.00000000E+002, 2.19112576E+001, -1.79038351E+001
331, 5.00000000E+002, -1.85314557E+001, -2.06494522E+001
332, 5.00000000E+002, -2.26324623E+001, 5.04900309E+000
333, 5.26081971E+002, 2.48320481E+001, 4.33978039E+001
334, 5.26153961E+002, 4.35703992E+001, 2.45279496E+001
335, 5.26178312E+002, 4.99821417E+001, -1.33623109E+000
336, 5.26093790E+002, 4.28435588E+001, -2.57765295E+001
337, 5.25776476E+002, 2.46635985E+001, -4.34937571E+001
338, 9.71408025E+002, 2.65876635E+001, 4.23449660E+001
339, 9.43123968E+002, 2.63126295E+001, 4.25164148E+001
340, 9.15011484E+002, 2.62104626E+001, 4.25794745E+001
341, 8.87268711E+002, 2.61724886E+001, 4.26028267E+001
342, 8.59684992E+002, 2.61585052E+001, 4.26114140E+001
343, 8.31791529E+002, 2.61530722E+001, 4.26147488E+001
344, 8.03752987E+002, 2.61503541E+001, 4.26164168E+001
345, 7.75630566E+002, 2.61481926E+001, 4.26177430E+001
346, 7.47476236E+002, 2.61468266E+001, 4.26185812E+001
347, 7.18822873E+002, 2.61464481E+001, 4.26188133E+001
348, 6.90091376E+002, 2.61440431E+001, 4.26202887E+001
349, 6.61589515E+002, 2.61303179E+001, 4.26287050E+001
350, 6.33336413E+002, 2.60919876E+001, 4.26521767E+001
351, 6.05507260E+002, 2.60117333E+001, 4.27011678E+001
352, 5.78700121E+002, 2.58541886E+001, 4.27967397E+001
353, 5.52294772E+002, 2.55276640E+001, 4.29923060E+001
354, 9.73916099E+002, 2.40224988E+001, -4.38511066E+001
355, 9.73289232E+002, 4.23637973E+001, -2.65576483E+001
356, 9.72673105E+002, 4.99417296E+001, -2.41322298E+000
357, 9.72073465E+002, 4.46394295E+001, 2.25237949E+001
358, 9.47668047E+002, 2.41343063E+001, -4.37896707E+001
359, 9.21087622E+002, 2.41774696E+001, -4.37658539E+001
360, 8.94111826E+002, 2.41958212E+001, -4.37557109E+001
361, 8.66657025E+002, 2.42041364E+001, -4.37511117E+001
362, 8.38494951E+002, 2.42078423E+001, -4.37490614E+001
363, 8.09473813E+002, 2.42096202E+001, -4.37480776E+001
364, 7.80360090E+002, 2.42114333E+001, -4.37470742E+001
365, 7.51173809E+002, 2.42123669E+001, -4.37465575E+001
366, 7.21953563E+002, 2.42127622E+001, -4.37463387E+001
367, 6.92765614E+002, 2.42137172E+001, -4.37458101E+001
368, 6.63752577E+002, 2.42207464E+001, -4.37419186E+001
369, 6.35258744E+002, 2.42426288E+001, -4.37297947E+001
370, 6.07101026E+002, 2.42856658E+001, -4.37059085E+001
371, 5.79394572E+002, 2.43560908E+001, -4.36667018E+001
372, 5.52128850E+002, 2.44690331E+001, -4.36035138E+001
373, 5.52515891E+002, 4.37755227E+001, 2.41599588E+001
374, 5.52635972E+002, 4.99830224E+001, -1.30287132E+000
375, 5.52567129E+002, 4.27873780E+001, -2.58696789E+001
376, 9.44207453E+002, 4.44262271E+001, 2.29414547E+001
377, 9.16389961E+002, 4.43450498E+001, 2.30979774E+001
378, 8.88652236E+002, 4.43133451E+001, 2.31587444E+001
379, 8.60891262E+002, 4.43007774E+001, 2.31827763E+001
380, 8.32928701E+002, 4.42955612E+001, 2.31927415E+001
381, 8.04771647E+002, 4.42930401E+001, 2.31975559E+001
382, 7.76464892E+002, 4.42914509E+001, 2.32005899E+001
383, 7.48028071E+002, 4.42904647E+001, 2.32024726E+001
384, 7.19378539E+002, 4.42898513E+001, 2.32036435E+001
385, 6.90699442E+002, 4.42869316E+001, 2.32092155E+001
386, 6.62206060E+002, 4.42748183E+001, 2.32323150E+001
387, 6.34033197E+002, 4.42439301E+001, 2.32910852E+001
388, 6.06320152E+002, 4.41802036E+001, 2.34117409E+001
389, 5.79219561E+002, 4.40528260E+001, 2.36505501E+001
390, 9.46429503E+002, 4.24299217E+001, -2.64518761E+001
391, 9.45289418E+002, 4.99525840E+001, -2.17700612E+000
392, 9.19353791E+002, 4.24699468E+001, -2.63875656E+001
393, 8.92013251E+002, 4.24903443E+001, -2.63547081E+001
394, 8.64334460E+002, 4.25002362E+001, -2.63387533E+001
395, 8.36210037E+002, 4.25049110E+001, -2.63312086E+001
396, 8.07630678E+002, 4.25072531E+001, -2.63274273E+001
397, 7.78851206E+002, 4.25088131E+001, -2.63249085E+001
398, 7.49949380E+002, 4.25097540E+001, -2.63233891E+001
399, 7.20980244E+002, 4.25103151E+001, -2.63224830E+001
400, 6.92047030E+002, 4.25124276E+001, -2.63190711E+001
401, 6.63313215E+002, 4.25222539E+001, -2.63031923E+001
402, 6.34970378E+002, 4.25477296E+001, -2.62619631E+001
403, 6.07045757E+002, 4.25959430E+001, -2.61836903E+001
404, 5.79581649E+002, 4.26734951E+001, -2.60571068E+001
405, 5.79526127E+002, 4.99770276E+001, -1.51549207E+000
406, 9.17816815E+002, 4.99579577E+001, -2.04999194E+000
407, 8.90232840E+002, 4.99603904E+001, -1.98982246E+000
408, 8.62465738E+002, 4.99614696E+001, -1.96253717E+000
409, 8.34418856E+002, 4.99619552E+001, -1.95013696E+000
410, 8.06088478E+002, 4.99621927E+001, -1.94404252E+000
411, 7.77567857E+002, 4.99623323E+001, -1.94045138E+000
412, 7.48909011E+002, 4.99624148E+001, -1.93832566E+000
413, 7.20140650E+002, 4.99624867E+001, -1.93647090E+000
414, 6.91390210E+002, 4.99627884E+001, -1.92867202E+000
415, 6.62832037E+002, 4.99638265E+001, -1.90158846E+000
416, 6.34620904E+002, 4.99662320E+001, -1.83729633E+000
417, 6.06856471E+002, 4.99707312E+001, -1.71056274E+000
418, 1.00000000E+003, 2.34210851E+001, -1.48657002E+001
419, 1.00000000E+003, 2.23606222E+001, 1.26438905E+001
420, 1.00000000E+003, -1.92328134E+001, 2.16895257E+001
421, 1.00000000E+003, -2.44855936E+001, 6.89240701E-001
422, 5.25790311E+002, -2.54679108E+001, -4.30277297E+001
423, 5.26125781E+002, -4.39147833E+001, -2.39058949E+001
424, 5.26241717E+002, -4.99895871E+001, 1.02038078E+000
425, 5.26232941E+002, -4.29027230E+001, 2.56779352E+001
426, 5.26137837E+002, -2.44764315E+001, 4.35993613E+001
427, 9.73977961E+002, -2.39625996E+001, -4.38838674E+001
428, 9.47892720E+002, -2.40487051E+001, -4.38367401E+001
429, 9.21532347E+002, -2.40934289E+001, -4.38121750E+001
430, 8.94771487E+002, -2.41134752E+001, -4.38011451E+001
431, 8.67467947E+002, -2.41225665E+001, -4.37961389E+001
432, 8.39381435E+002, -2.41225333E+001, -4.37961572E+001
433, 8.10327041E+002, -2.41242534E+001, -4.37952098E+001
434, 7.81117351E+002, -2.41267826E+001, -4.37938165E+001
435, 7.51822011E+002, -2.41282075E+001, -4.37930314E+001
436, 7.22502587E+002, -2.41295849E+001, -4.37922725E+001
437, 6.93230609E+002, -2.41386011E+001, -4.37873034E+001
438, 6.64135489E+002, -2.41725076E+001, -4.37685946E+001
439, 6.35552573E+002, -2.42523028E+001, -4.37244303E+001
440, 6.07301436E+002, -2.44009550E+001, -4.36416475E+001
441, 5.79513923E+002, -2.46494644E+001, -4.35017690E+001
442, 5.52190776E+002, -2.50203128E+001, -4.32895362E+001
443, 9.71536588E+002, -2.65548212E+001, 4.23655694E+001
444, 9.72287982E+002, -4.46573813E+001, 2.24881812E+001
445, 9.72904215E+002, -4.99269871E+001, -2.70110256E+000
446, 9.73454953E+002, -4.21626083E+001, -2.68759086E+001
447, 9.43460901E+002, -2.63074107E+001, 4.25196442E+001
448, 9.15580313E+002, -2.62112328E+001, 4.25790004E+001
449, 8.88020756E+002, -2.61752501E+001, 4.26011300E+001
450, 8.60539961E+002, -2.61626077E+001, 4.26088953E+001
451, 8.32694206E+002, -2.61705423E+001, 4.26040223E+001
452, 8.04591462E+002, -2.61674113E+001, 4.26059454E+001
453, 7.76366215E+002, -2.61640272E+001, 4.26080237E+001
454, 7.48110028E+002, -2.61615934E+001, 4.26095181E+001
455, 7.19368989E+002, -2.61570653E+001, 4.26122979E+001
456, 6.90558718E+002, -2.61410667E+001, 4.26221143E+001
457, 6.61977529E+002, -2.60978771E+001, 4.26485734E+001
458, 6.33634539E+002, -2.60070822E+001, 4.27040007E+001
459, 6.05709146E+002, -2.58442738E+001, 4.28027279E+001
460, 5.78829992E+002, -2.55752888E+001, 4.29639919E+001
461, 5.52382542E+002, -2.51497948E+001, 4.32144400E+001
462, 5.52659505E+002, -4.35034390E+001, -2.46465169E+001
463, 5.52780798E+002, -4.99988791E+001, 3.34800463E-001
464, 5.52677206E+002, -4.32524585E+001, 2.50843544E+001
465, 9.46868072E+002, -4.22831889E+001, -2.66858002E+001
466, 9.20125310E+002, -4.23408583E+001, -2.65942046E+001
467, 8.93105092E+002, -4.23636338E+001, -2.65579090E+001
468, 8.65628838E+002, -4.23757592E+001, -2.65385574E+001
469, 8.37613847E+002, -4.23734573E+001, -2.65422326E+001
470, 8.08969958E+002, -4.23763981E+001, -2.65375373E+001
471, 7.80044227E+002, -4.23792953E+001, -2.65329103E+001
472, 7.50977014E+002, -4.23812125E+001, -2.65298479E+001
473, 7.21855921E+002, -4.23845515E+001, -2.65245131E+001
474, 6.92788802E+002, -4.23978919E+001, -2.65031839E+001
475, 6.63922218E+002, -4.24371753E+001, -2.64402374E+001
476, 6.35436196E+002, -4.25238509E+001, -2.63006103E+001
477, 6.07366590E+002, -4.26908655E+001, -2.60286382E+001
478, 5.79781863E+002, -4.29970485E+001, -2.55196751E+001
479, 9.44727874E+002, -4.44569780E+001, 2.28818073E+001
480, 9.45822345E+002, -4.99423127E+001, -2.40112497E+000
481, 9.17296491E+002, -4.44069834E+001, 2.29786819E+001
482, 8.89923778E+002, -4.43790870E+001, 2.30325125E+001
483, 8.62345182E+002, -4.43604683E+001, 2.30683518E+001
484, 8.34371376E+002, -4.43438179E+001, 2.31003423E+001
485, 8.06107148E+002, -4.43363004E+001, 2.31147673E+001
486, 7.77644831E+002, -4.43325357E+001, 2.31219868E+001
487, 7.49046365E+002, -4.43300483E+001, 2.31267555E+001
488, 7.20252234E+002, -4.43254085E+001, 2.31356470E+001
489, 6.91443469E+002, -4.43106579E+001, 2.31638856E+001
490, 6.62819073E+002, -4.42718262E+001, 2.32380165E+001
491, 6.34503002E+002, -4.41891140E+001, 2.33949183E+001
492, 6.06568468E+002, -4.40613628E+001, 2.36346421E+001
493, 5.79353685E+002, -4.37598225E+001, 2.41883842E+001
494, 5.79675306E+002, -4.99970950E+001, -5.38973434E-001
495, 9.18753531E+002, -4.99470834E+001, -2.29975249E+000
496, 8.91589388E+002, -4.99484949E+001, -2.26888977E+000
497, 8.64006342E+002, -4.99507683E+001, -2.21827644E+000
498, 8.35929316E+002, -4.99525216E+001, -2.17843766E+000
499, 8.07498046E+002, -4.99532508E+001, -2.16165192E+000
500, 7.78822803E+002, -4.99536160E+001, -2.15319465E+000
501, 7.49996064E+002, -4.99538682E+001, -2.14733507E+000
502, 7.21072208E+002, -4.99543623E+001, -2.13580981E+000
503, 6.92179373E+002, -4.99558873E+001, -2.09983997E+000
504, 6.63477529E+002, -4.99596878E+001, -2.00738432E+000
505, 6.35113608E+002, -4.99673373E+001, -1.80698821E+000
506, 6.07124308E+002, -4.99789850E+001, -1.44950218E+000
507, 4.90000000E+002, 4.00000000E+001, -2.40000000E-015
508, 4.90000000E+002, 0.00000000E+000, 0.00000000E+000
509, 1.00000000E+001, 0.00000000E+000, 0.00000000E+000
510, 1.00000000E+001, 4.00000000E+001, -2.40000000E-015
511, 4.90000000E+002, -4.00000000E+001, 2.40000000E-015
512, 1.00000000E+001, -4.00000000E+001, 2.40000000E-015
513, 4.90000000E+002, 0.00000000E+000, -4.00000000E+001
514, 1.00000000E+001, 0.00000000E+000, -4.00000000E+001
515, 4.90000000E+002, 0.00000000E+000, 4.00000000E+001
516, 1.00000000E+001, 0.00000000E+000, 4.00000000E+001
517, 4.90000000E+002, 2.01200000E+001, -1.20000000E-015
518, 4.69360000E+002, 0.00000000E+000, 0.00000000E+000
519, 4.48720000E+002, 0.00000000E+000, 0.00000000E+000
520, 4.23280000E+002, 0.00000000E+000, 0.00000000E+000
521, 3.94000000E+002, 0.00000000E+000, 0.00000000E+000
522, 3.64240000E+002, 0.00000000E+000, 0.00000000E+000
523, 3.34480000E+002, 0.00000000E+000, 0.00000000E+000
524, 3.04720000E+002, 0.00000000E+000, 0.00000000E+000
525, 2.74960000E+002, 0.00000000E+000, 0.00000000E+000
526, 2.45200000E+002, 0.00000000E+000, 0.00000000E+000
527, 2.15440000E+002, 0.00000000E+000, 0.00000000E+000
528, 1.85680000E+002, 0.00000000E+000, 0.00000000E+000
529, 1.56400000E+002, 0.00000000E+000, 0.00000000E+000
530, 1.26640000E+002, 0.00000000E+000, 0.00000000E+000
531, 9.68800000E+001, 0.00000000E+000, 0.00000000E+000
532, 7.00000000E+001, 0.00000000E+000, 0.00000000E+000
533, 4.98400000E+001, 0.00000000E+000, 0.00000000E+000
534, 2.96800000E+001, 0.00000000E+000, 0.00000000E+000
535, 1.00000000E+001, 2.00800000E+001, -1.20000000E-015
536, 4.69840000E+002, 4.00000000E+001, -2.40000000E-015
537, 4.50160000E+002, 4.00000000E+001, -2.40000000E-015
538, 4.27600000E+002, 4.00000000E+001, -2.40000000E-015
539, 3.98320000E+002, 4.00000000E+001, -2.40000000E-015
540, 3.68560000E+002, 4.00000000E+001, -2.40000000E-015
541, 3.39280000E+002, 4.00000000E+001, -2.40000000E-015
542, 3.09520000E+002, 4.00000000E+001, -2.40000000E-015
543, 2.80240000E+002, 4.00000000E+001, -2.40000000E-015
544, 2.50480000E+002, 4.00000000E+001, -2.40000000E-015
545, 2.21200000E+002, 4.00000000E+001, -2.40000000E-015
546, 1.91920000E+002, 4.00000000E+001, -2.40000000E-015
547, 1.62160000E+002, 4.00000000E+001, -2.40000000E-015
548, 1.32880000E+002, 4.00000000E+001, -2.40000000E-015
549, 1.03120000E+002, 4.00000000E+001, -2.40000000E-015
550, 7.52800000E+001, 4.00000000E+001, -2.40000000E-015
551, 5.08000000E+001, 4.00000000E+001, -2.40000000E-015
552, 2.96800000E+001, 4.00000000E+001, -2.40000000E-015
553, 4.90000000E+002, -1.99600000E+001, 1.20000000E-015
554, 3.06400000E+001, -4.00000000E+001, 2.40000000E-015
555, 5.51200000E+001, -4.00000000E+001, 2.40000000E-015
556, 8.00800000E+001, -4.00000000E+001, 2.40000000E-015
557, 1.09840000E+002, -4.00000000E+001, 2.40000000E-015
558, 1.40560000E+002, -4.00000000E+001, 2.40000000E-015
559, 1.70800000E+002, -4.00000000E+001, 2.40000000E-015
560, 2.01040000E+002, -4.00000000E+001, 2.40000000E-015
561, 2.31280000E+002, -4.00000000E+001, 2.40000000E-015
562, 2.61520000E+002, -4.00000000E+001, 2.40000000E-015
563, 2.91760000E+002, -4.00000000E+001, 2.40000000E-015
564, 3.22000000E+002, -4.00000000E+001, 2.40000000E-015
565, 3.52720000E+002, -4.00000000E+001, 2.40000000E-015
566, 3.82960000E+002, -4.00000000E+001, 2.40000000E-015
567, 4.13200000E+002, -4.00000000E+001, 2.40000000E-015
568, 4.40560000E+002, -4.00000000E+001, 2.40000000E-015
569, 4.65520000E+002, -4.00000000E+001, 2.40000000E-015
570, 1.00000000E+001, -1.98800000E+001, 1.20000000E-015
571, 4.90000000E+002, 0.00000000E+000, -2.01200000E+001
572, 1.00000000E+001, 0.00000000E+000, -1.99200000E+001
573, 4.69840000E+002, 0.00000000E+000, -4.00000000E+001
574, 4.50160000E+002, 0.00000000E+000, -4.00000000E+001
575, 4.28080000E+002, 0.00000000E+000, -4.00000000E+001
576, 3.98800000E+002, 0.00000000E+000, -4.00000000E+001
577, 3.69520000E+002, 0.00000000E+000, -4.00000000E+001
578, 3.40240000E+002, 0.00000000E+000, -4.00000000E+001
579, 3.10960000E+002, 0.00000000E+000, -4.00000000E+001
580, 2.81680000E+002, 0.00000000E+000, -4.00000000E+001
581, 2.52400000E+002, 0.00000000E+000, -4.00000000E+001
582, 2.22640000E+002, 0.00000000E+000, -4.00000000E+001
583, 1.93360000E+002, 0.00000000E+000, -4.00000000E+001
584, 1.64080000E+002, 0.00000000E+000, -4.00000000E+001
585, 1.34800000E+002, 0.00000000E+000, -4.00000000E+001
586, 1.05520000E+002, 0.00000000E+000, -4.00000000E+001
587, 7.72000000E+001, 0.00000000E+000, -4.00000000E+001
588, 5.32000000E+001, 0.00000000E+000, -4.00000000E+001
589, 2.96800000E+001, 0.00000000E+000, -4.00000000E+001
590, 4.90000000E+002, 0.00000000E+000, 2.01200000E+001
591, 3.30400000E+001, 0.00000000E+000, 4.00000000E+001
592, 5.84800000E+001, 0.00000000E+000, 4.00000000E+001
593, 8.92000000E+001, 0.00000000E+000, 4.00000000E+001
594, 1.19440000E+002, 0.00000000E+000, 4.00000000E+001
595, 1.50160000E+002, 0.00000000E+000, 4.00000000E+001
596, 1.80880000E+002, 0.00000000E+000, 4.00000000E+001
597, 2.11120000E+002, 0.00000000E+000, 4.00000000E+001
598, 2.41840000E+002, 0.00000000E+000, 4.00000000E+001
599, 2.72560000E+002, 0.00000000E+000, 4.00000000E+001
600, 3.02800000E+002, 0.00000000E+000, 4.00000000E+001
601, 3.33520000E+002, 0.00000000E+000, 4.00000000E+001
602, 3.64240000E+002, 0.00000000E+000, 4.00000000E+001
603, 3.94480000E+002, 0.00000000E+000, 4.00000000E+001
604, 4.25200000E+002, 0.00000000E+000, 4.00000000E+001
605, 4.48720000E+002, 0.00000000E+000, 4.00000000E+001
606, 4.69840000E+002, 0.00000000E+000, 4.00000000E+001
607, 1.00000000E+001, 0.00000000E+000, 1.98800000E+001
608, 4.69395585E+002, 2.00339210E+001, -1.20000000E-015
609, 4.48312932E+002, 2.00099619E+001, -1.20000000E-015
610, 4.24222187E+002, 2.00033946E+001, -1.20000000E-015
611, 3.95875635E+002, 2.00010788E+001, -1.20000000E-015
612, 3.66394618E+002, 2.00002013E+001, -1.20000000E-015
613, 3.36853614E+002, 2.00000655E+001, -1.20000000E-015
614, 3.07157753E+002, 2.00000268E+001, -1.20000000E-015
615, 2.77582442E+002, 2.00000510E+001, -1.20000000E-015
616, 2.47886489E+002, 2.00000039E+001, -1.20000000E-015
617, 2.18344167E+002, 2.00000230E+001, -1.20000000E-015
618, 1.88805779E+002, 2.00000076E+001, -1.20000000E-015
619, 1.59292572E+002, 1.99999209E+001, -1.20000000E-015
620, 1.29833102E+002, 1.99996294E+001, -1.20000000E-015
621, 1.00620526E+002, 1.99987652E+001, -1.20000000E-015
622, 7.38326928E+001, 1.99938560E+001, -1.20000000E-015
623, 5.10312371E+001, 1.99999552E+001, -1.20000000E-015
624, 3.00832870E+001, 2.00190654E+001, -1.20000000E-015
625, 4.67335623E+002, -1.99837726E+001, 1.20000000E-015
626, 3.07420526E+001, -1.99725888E+001, 1.20000000E-015
627, 5.29627698E+001, -2.00024287E+001, 1.20000000E-015
628, 7.72830761E+001, -2.00838643E+001, 1.20000000E-015
629, 1.15742877E+002, -2.04337432E+001, 1.30000000E-015
630, 1.48112609E+002, -2.00699426E+001, 1.20000000E-015
631, 1.78288040E+002, -2.00118899E+001, 1.20000000E-015
632, 2.08295276E+002, -2.00020370E+001, 1.20000000E-015
633, 2.38295186E+002, -2.00003378E+001, 1.20000000E-015
634, 2.68294776E+002, -2.00000412E+001, 1.20000000E-015
635, 2.98300005E+002, -1.99999718E+001, 1.20000000E-015
636, 3.28339705E+002, -1.99999635E+001, 1.20000000E-015
637, 3.58486783E+002, -2.00002086E+001, 1.20000000E-015
638, 3.88374174E+002, -1.99997654E+001, 1.20000000E-015
639, 4.17574878E+002, -1.99975371E+001, 1.20000000E-015
640, 4.43916996E+002, -1.99880493E+001, 1.20000000E-015
641, 4.69406440E+002, 0.00000000E+000, -2.00339428E+001
642, 4.48361297E+002, 0.00000000E+000, -2.00103073E+001
643, 4.24435614E+002, 0.00000000E+000, -2.00044434E+001
644, 3.96152380E+002, 0.00000000E+000, -2.00012039E+001
645, 3.66857145E+002, 0.00000000E+000, -2.00000984E+001
646, 3.37375825E+002, 0.00000000E+000, -1.99999981E+001
647, 3.07862781E+002, 0.00000000E+000, -2.00000040E+001
648, 2.78339402E+002, 0.00000000E+000, -2.00000268E+001
649, 2.48783182E+002, 0.00000000E+000, -2.00000451E+001
650, 2.19095023E+002, 0.00000000E+000, -1.99999797E+001
651, 1.89577831E+002, 0.00000000E+000, -1.99999976E+001
652, 1.60239113E+002, 0.00000000E+000, -1.99997878E+001
653, 1.30831328E+002, 0.00000000E+000, -1.99991850E+001
654, 1.01738134E+002, 0.00000000E+000, -1.99978239E+001
655, 7.47664645E+001, 0.00000000E+000, -1.99895368E+001
656, 5.18859375E+001, 0.00000000E+000, -1.99902982E+001
657, 3.02720491E+001, 0.00000000E+000, -1.99804359E+001
658, 4.69233009E+002, 0.00000000E+000, 2.00298168E+001
659, 3.29389962E+001, 0.00000000E+000, 1.98409779E+001
660, 6.35467227E+001, 0.00000000E+000, 1.90229209E+001
661, 9.32357898E+001, 0.00000000E+000, 1.98429168E+001
662, 1.23141466E+002, 0.00000000E+000, 1.99745523E+001
663, 1.53306945E+002, 0.00000000E+000, 1.99958801E+001
664, 1.83321968E+002, 0.00000000E+000, 1.99994971E+001
665, 2.13344818E+002, 0.00000000E+000, 1.99999241E+001
666, 2.43546019E+002, 0.00000000E+000, 2.00000679E+001
667, 2.73744088E+002, 0.00000000E+000, 2.00000643E+001
668, 3.03801979E+002, 0.00000000E+000, 2.00000489E+001
669, 3.34001080E+002, 0.00000000E+000, 2.00002070E+001
670, 3.64170253E+002, 0.00000000E+000, 2.00005377E+001
671, 3.94023455E+002, 0.00000000E+000, 2.00023624E+001
672, 4.23003334E+002, 0.00000000E+000, 2.00033755E+001
673, 4.47615346E+002, 0.00000000E+000, 2.00063549E+001
674, 9.95000000E+002, 0.00000000E+000, 0.00000000E+000
675, 9.95000000E+002, 0.00000000E+000, -4.00000000E+001
676, 5.10000000E+002, 0.00000000E+000, 0.00000000E+000
677, 5.10000000E+002, 0.00000000E+000, -4.00000000E+001
678, 9.95000000E+002, 0.00000000E+000, 4.00000000E+001
679, 5.10000000E+002, 0.00000000E+000, 4.00000000E+001
680, 9.95000000E+002, 4.00000000E+001, -2.40000000E-015
681, 5.10000000E+002, 4.00000000E+001, -2.40000000E-015
682, 9.95000000E+002, -4.00000000E+001, 2.40000000E-015
683, 5.10000000E+002, -4.00000000E+001, 2.40000000E-015
684, 9.95000000E+002, 0.00000000E+000, -1.98800000E+001
685, 5.29885000E+002, 0.00000000E+000, 0.00000000E+000
686, 5.50255000E+002, 0.00000000E+000, 0.00000000E+000
687, 5.73050000E+002, 0.00000000E+000, 0.00000000E+000
688, 5.97300000E+002, 0.00000000E+000, 0.00000000E+000
689, 6.23975000E+002, 0.00000000E+000, 0.00000000E+000
690, 6.53075000E+002, 0.00000000E+000, 0.00000000E+000
691, 6.82660000E+002, 0.00000000E+000, 0.00000000E+000
692, 7.11760000E+002, 0.00000000E+000, 0.00000000E+000
693, 7.40860000E+002, 0.00000000E+000, 0.00000000E+000
694, 7.70445000E+002, 0.00000000E+000, 0.00000000E+000
695, 7.99545000E+002, 0.00000000E+000, 0.00000000E+000
696, 8.28645000E+002, 0.00000000E+000, 0.00000000E+000
697, 8.57745000E+002, 0.00000000E+000, 0.00000000E+000
698, 8.87330000E+002, 0.00000000E+000, 0.00000000E+000
699, 9.14975000E+002, 0.00000000E+000, 0.00000000E+000
700, 9.35830000E+002, 0.00000000E+000, 0.00000000E+000
701, 9.55715000E+002, 0.00000000E+000, 0.00000000E+000
702, 9.75600000E+002, 0.00000000E+000, 0.00000000E+000
703, 5.10000000E+002, 0.00000000E+000, -2.01600000E+001
704, 9.74630000E+002, 0.00000000E+000, -4.00000000E+001
705, 9.54260000E+002, 0.00000000E+000, -4.00000000E+001
706, 9.30010000E+002, 0.00000000E+000, -4.00000000E+001
707, 9.05275000E+002, 0.00000000E+000, -4.00000000E+001
708, 8.76175000E+002, 0.00000000E+000, -4.00000000E+001
709, 8.46590000E+002, 0.00000000E+000, -4.00000000E+001
710, 8.17490000E+002, 0.00000000E+000, -4.00000000E+001
711, 7.88390000E+002, 0.00000000E+000, -4.00000000E+001
712, 7.58805000E+002, 0.00000000E+000, -4.00000000E+001
713, 7.29705000E+002, 0.00000000E+000, -4.00000000E+001
714, 7.00605000E+002, 0.00000000E+000, -4.00000000E+001
715, 6.71505000E+002, 0.00000000E+000, -4.00000000E+001
716, 6.41920000E+002, 0.00000000E+000, -4.00000000E+001
717, 6.12820000E+002, 0.00000000E+000, -4.00000000E+001
718, 5.89055000E+002, 0.00000000E+000, -4.00000000E+001
719, 5.69170000E+002, 0.00000000E+000, -4.00000000E+001
720, 5.48800000E+002, 0.00000000E+000, -4.00000000E+001
721, 5.29400000E+002, 0.00000000E+000, -4.00000000E+001
722, 9.95000000E+002, 0.00000000E+000, 2.00800000E+001
723, 5.30370000E+002, 0.00000000E+000, 4.00000000E+001
724, 5.51225000E+002, 0.00000000E+000, 4.00000000E+001
725, 5.72080000E+002, 0.00000000E+000, 4.00000000E+001
726, 5.92935000E+002, 0.00000000E+000, 4.00000000E+001
727, 6.19610000E+002, 0.00000000E+000, 4.00000000E+001
728, 6.49680000E+002, 0.00000000E+000, 4.00000000E+001
729, 6.80235000E+002, 0.00000000E+000, 4.00000000E+001
730, 7.10790000E+002, 0.00000000E+000, 4.00000000E+001
731, 7.41345000E+002, 0.00000000E+000, 4.00000000E+001
732, 7.71415000E+002, 0.00000000E+000, 4.00000000E+001
733, 8.01970000E+002, 0.00000000E+000, 4.00000000E+001
734, 8.32525000E+002, 0.00000000E+000, 4.00000000E+001
735, 8.63080000E+002, 0.00000000E+000, 4.00000000E+001
736, 8.93150000E+002, 0.00000000E+000, 4.00000000E+001
737, 9.23705000E+002, 0.00000000E+000, 4.00000000E+001
738, 9.50380000E+002, 0.00000000E+000, 4.00000000E+001
739, 9.74630000E+002, 0.00000000E+000, 4.00000000E+001
740, 5.10000000E+002, 0.00000000E+000, 1.99200000E+001
741, 9.95000000E+002, 1.99600000E+001, -1.20000000E-015
742, 5.10000000E+002, 1.98000000E+001, -1.20000000E-015
743, 9.72690000E+002, 4.00000000E+001, -2.40000000E-015
744, 9.51350000E+002, 4.00000000E+001, -2.40000000E-015
745, 9.27100000E+002, 4.00000000E+001, -2.40000000E-015
746, 8.97030000E+002, 4.00000000E+001, -2.40000000E-015
747, 8.67445000E+002, 4.00000000E+001, -2.40000000E-015
748, 8.37860000E+002, 4.00000000E+001, -2.40000000E-015
749, 8.07790000E+002, 4.00000000E+001, -2.40000000E-015
750, 7.78205000E+002, 4.00000000E+001, -2.40000000E-015
751, 7.48135000E+002, 4.00000000E+001, -2.40000000E-015
752, 7.18550000E+002, 4.00000000E+001, -2.40000000E-015
753, 6.88480000E+002, 4.00000000E+001, -2.40000000E-015
754, 6.58895000E+002, 4.00000000E+001, -2.40000000E-015
755, 6.28825000E+002, 4.00000000E+001, -2.40000000E-015
756, 5.99240000E+002, 4.00000000E+001, -2.40000000E-015
757, 5.71595000E+002, 4.00000000E+001, -2.40000000E-015
758, 5.50740000E+002, 4.00000000E+001, -2.40000000E-015
759, 5.30370000E+002, 4.00000000E+001, -2.40000000E-015
760, 9.95000000E+002, -1.98800000E+001, 1.20000000E-015
761, 5.30370000E+002, -4.00000000E+001, 2.40000000E-015
762, 5.50255000E+002, -4.00000000E+001, 2.40000000E-015
763, 5.70625000E+002, -4.00000000E+001, 2.40000000E-015
764, 5.90995000E+002, -4.00000000E+001, 2.40000000E-015
765, 6.16215000E+002, -4.00000000E+001, 2.40000000E-015
766, 6.46285000E+002, -4.00000000E+001, 2.40000000E-015
767, 6.75870000E+002, -4.00000000E+001, 2.40000000E-015
768, 7.05455000E+002, -4.00000000E+001, 2.40000000E-015
769, 7.35525000E+002, -4.00000000E+001, 2.40000000E-015
770, 7.65110000E+002, -4.00000000E+001, 2.40000000E-015
771, 7.95180000E+002, -4.00000000E+001, 2.40000000E-015
772, 8.24765000E+002, -4.00000000E+001, 2.40000000E-015
773, 8.54350000E+002, -4.00000000E+001, 2.40000000E-015
774, 8.84420000E+002, -4.00000000E+001, 2.40000000E-015
775, 9.13035000E+002, -4.00000000E+001, 2.40000000E-015
776, 9.34375000E+002, -4.00000000E+001, 2.40000000E-015
777, 9.55230000E+002, -4.00000000E+001, 2.40000000E-015
778, 9.75115000E+002, -4.00000000E+001, 2.40000000E-015
779, 5.10000000E+002, -2.00000000E+001, 1.20000000E-015
780, 9.74927810E+002, 0.00000000E+000, -1.99673206E+001
781, 5.29843301E+002, 0.00000000E+000, -2.00447234E+001
782, 5.50052249E+002, 0.00000000E+000, -2.00113656E+001
783, 5.71420452E+002, 0.00000000E+000, -2.00047966E+001
784, 5.93900854E+002, 0.00000000E+000, -2.00081275E+001
785, 6.19207733E+002, 0.00000000E+000, -2.00041302E+001
786, 6.47717056E+002, 0.00000000E+000, -2.00010488E+001
787, 6.77039462E+002, 0.00000000E+000, -2.00001320E+001
788, 7.06180789E+002, 0.00000000E+000, -1.99999601E+001
789, 7.35311941E+002, 0.00000000E+000, -1.99996693E+001
790, 7.64631848E+002, 0.00000000E+000, -1.99994734E+001
791, 7.93947918E+002, 0.00000000E+000, -1.99999139E+001
792, 8.23074658E+002, 0.00000000E+000, -2.00006017E+001
793, 8.52202285E+002, 0.00000000E+000, -1.99994082E+001
794, 8.81413166E+002, 0.00000000E+000, -1.99971962E+001
795, 9.09054763E+002, 0.00000000E+000, -1.99896421E+001
796, 9.32552757E+002, 0.00000000E+000, -1.99931517E+001
797, 9.54435207E+002, 0.00000000E+000, -1.99932708E+001
798, 9.66034959E+002, 0.00000000E+000, 2.01006656E+001
799, 5.30682759E+002, 0.00000000E+000, 1.99975754E+001
800, 5.52715491E+002, 0.00000000E+000, 2.00840162E+001
801, 5.83411998E+002, 0.00000000E+000, 2.05770320E+001
802, 6.12753142E+002, 0.00000000E+000, 1.68595361E+001
803, 6.50456620E+002, 0.00000000E+000, 1.97383775E+001
804, 6.81287540E+002, 0.00000000E+000, 1.99602366E+001
805, 7.11257569E+002, 0.00000000E+000, 1.99935798E+001
806, 7.41096616E+002, 0.00000000E+000, 1.99990062E+001
807, 7.70917726E+002, 0.00000000E+000, 1.99999239E+001
808, 8.00727000E+002, 0.00000000E+000, 2.00001043E+001
809, 8.30530406E+002, 0.00000000E+000, 2.00003600E+001
810, 8.60300480E+002, 0.00000000E+000, 2.00014535E+001
811, 8.89770229E+002, 0.00000000E+000, 2.00076813E+001
812, 9.17788843E+002, 0.00000000E+000, 2.00072628E+001
813, 9.42148388E+002, 0.00000000E+000, 1.99961524E+001
814, 9.74445855E+002, 1.97297022E+001, -1.20000000E-015
815, 5.30343985E+002, 1.99488993E+001, -1.20000000E-015
816, 5.51137007E+002, 1.99905433E+001, -1.20000000E-015
817, 5.73434730E+002, 2.00035356E+001, -1.20000000E-015
818, 5.98893907E+002, 2.00049126E+001, -1.20000000E-015
819, 6.26702426E+002, 2.00015810E+001, -1.20000000E-015
820, 6.56014389E+002, 2.00004136E+001, -1.20000000E-015
821, 6.85547079E+002, 2.00001915E+001, -1.20000000E-015
822, 7.15089242E+002, 1.99999524E+001, -1.20000000E-015
823, 7.44528356E+002, 2.00000212E+001, -1.20000000E-015
824, 7.74225649E+002, 2.00002161E+001, -1.20000000E-015
825, 8.03639318E+002, 2.00006078E+001, -1.20000000E-015
826, 8.33149309E+002, 2.00012212E+001, -1.20000000E-015
827, 8.62464169E+002, 2.00050121E+001, -1.20000000E-015
828, 8.91346102E+002, 2.00234048E+001, -1.20000000E-015
829, 9.17857242E+002, 2.00170618E+001, -1.20000000E-015
830, 9.35661118E+002, 1.62959629E+001, -1.00000000E-015
831, 9.54390010E+002, 1.89465747E+001, -1.20000000E-015
832, 9.75223618E+002, -1.99670386E+001, 1.20000000E-015
833, 5.30254194E+002, -1.99998846E+001, 1.20000000E-015
834, 5.50822488E+002, -2.00098050E+001, 1.20000000E-015
835, 5.72732309E+002, -2.00407784E+001, 1.20000000E-015
836, 5.97540701E+002, -2.01478682E+001, 1.20000000E-015
837, 6.34613654E+002, -1.96477369E+001, 1.20000000E-015
838, 6.69725941E+002, -1.72883155E+001, 1.10000000E-015
839, 7.07613255E+002, -1.97889658E+001, 1.20000000E-015
840, 7.38055281E+002, -1.99673950E+001, 1.20000000E-015
841, 7.67766865E+002, -1.99947073E+001, 1.20000000E-015
842, 7.97342316E+002, -1.99992089E+001, 1.20000000E-015
843, 8.26712225E+002, -1.99999239E+001, 1.20000000E-015
844, 8.56044573E+002, -2.00003632E+001, 1.20000000E-015
845, 8.85311257E+002, -2.00010086E+001, 1.20000000E-015
846, 9.12370865E+002, -1.99993854E+001, 1.20000000E-015
847, 9.34501164E+002, -1.99961109E+001, 1.20000000E-015
848, 9.55176938E+002, -1.99901237E+001, 1.20000000E-015
**
** Elements ++++++++++++++++++++++++++++++++++++++++++++++++
**
*Element, Type=S3, Elset=bem_z1
1, 69, 68, 67
5, 10, 69, 11
6, 2, 7, 8
9, 6, 68, 7
151, 7, 172, 6
154, 169, 168, 173
*Element, Type=S4, Elset=bem_z1
2, 6, 5, 67, 68
3, 67, 5, 1, 12
4, 10, 9, 68, 69
7, 11, 69, 67, 12
8, 232, 234, 250, 233
10, 68, 9, 8, 7
11, 13, 3, 20, 70
12, 14, 13, 70, 71
13, 15, 14, 71, 17
14, 4, 15, 17, 16
15, 18, 17, 71, 19
16, 71, 70, 20, 19
17, 247, 248, 249, 263
18, 246, 247, 263, 262
19, 21, 3, 13, 72
20, 22, 21, 72, 73
21, 23, 22, 73, 74
22, 24, 23, 74, 75
23, 25, 24, 75, 76
24, 13, 14, 77, 72
25, 76, 75, 74, 77
26, 4, 25, 76, 15
27, 74, 73, 72, 77
28, 76, 77, 14, 15
29, 245, 246, 262, 261
30, 26, 4, 16, 78
31, 27, 26, 78, 79
32, 28, 27, 79, 80
33, 29, 28, 80, 81
34, 30, 29, 81, 82
35, 31, 30, 82, 83
36, 32, 31, 83, 84
37, 33, 32, 84, 85
38, 34, 33, 85, 86
39, 35, 34, 86, 87
40, 36, 35, 87, 88
41, 37, 36, 88, 89
42, 38, 37, 89, 90
43, 39, 38, 90, 91
44, 40, 39, 91, 92
45, 41, 40, 92, 93
46, 42, 41, 93, 94
47, 43, 42, 94, 95
48, 1, 43, 95, 12
49, 16, 17, 96, 78
50, 17, 18, 97, 96
51, 18, 19, 98, 97
52, 19, 20, 99, 98
53, 20, 3, 44, 99
54, 44, 45, 100, 99
55, 45, 46, 101, 100
56, 46, 47, 102, 101
57, 47, 48, 103, 102
58, 48, 49, 104, 103
59, 49, 50, 105, 104
60, 50, 51, 106, 105
61, 51, 52, 107, 106
62, 52, 53, 108, 107
63, 53, 54, 109, 108
64, 54, 55, 110, 109
65, 55, 56, 111, 110
66, 56, 57, 112, 111
67, 57, 58, 113, 112
68, 58, 59, 114, 113
69, 59, 60, 115, 114
70, 60, 61, 116, 115
71, 61, 2, 8, 116
72, 8, 9, 117, 116
73, 9, 10, 118, 117
74, 10, 11, 119, 118
75, 11, 12, 95, 119
76, 79, 78, 96, 120
77, 80, 79, 120, 121
78, 81, 80, 121, 122
79, 82, 81, 122, 123
80, 83, 82, 123, 124
81, 84, 83, 124, 125
82, 85, 84, 125, 126
83, 86, 85, 126, 127
84, 87, 86, 127, 128
85, 88, 87, 128, 129
86, 89, 88, 129, 130
87, 90, 89, 130, 131
88, 91, 90, 131, 132
89, 92, 91, 132, 133
90, 93, 92, 133, 134
91, 94, 93, 134, 135
92, 95, 94, 135, 119
93, 97, 98, 136, 137
94, 98, 99, 100, 136
95, 100, 101, 138, 136
96, 101, 102, 139, 138
97, 102, 103, 140, 139
98, 103, 104, 141, 140
99, 104, 105, 142, 141
100, 105, 106, 143, 142
101, 106, 107, 144, 143
102, 107, 108, 145, 144
103, 108, 109, 146, 145
104, 109, 110, 147, 146
105, 110, 111, 148, 147
106, 111, 112, 149, 148
107, 112, 113, 150, 149
108, 113, 114, 151, 150
109, 114, 115, 152, 151
110, 115, 116, 117, 152
111, 117, 118, 153, 152
112, 118, 119, 135, 153
113, 96, 97, 137, 120
114, 121, 120, 137, 154
115, 122, 121, 154, 155
116, 123, 122, 155, 156
117, 124, 123, 156, 157
118, 125, 124, 157, 158
119, 126, 125, 158, 159
120, 127, 126, 159, 160
121, 128, 127, 160, 161
122, 129, 128, 161, 162
123, 130, 129, 162, 163
124, 131, 130, 163, 164
125, 132, 131, 164, 165
126, 133, 132, 165, 166
127, 134, 133, 166, 167
128, 135, 134, 167, 153
129, 138, 139, 155, 154
130, 140, 141, 157, 156
131, 139, 140, 156, 155
132, 142, 143, 159, 158
133, 144, 145, 161, 160
134, 145, 146, 162, 161
135, 147, 148, 164, 163
136, 165, 149, 150, 166
137, 150, 151, 167, 166
138, 151, 152, 153, 167
139, 136, 138, 154, 137
140, 159, 143, 144, 160
141, 162, 146, 147, 163
142, 157, 141, 142, 158
143, 148, 149, 165, 164
144, 244, 245, 261, 260
145, 62, 1, 5, 168
146, 63, 62, 168, 169
147, 64, 63, 169, 170
148, 65, 64, 170, 171
149, 66, 65, 171, 172
150, 5, 6, 173, 168
152, 2, 66, 172, 7
153, 170, 169, 173, 171
155, 172, 171, 173, 6
156, 44, 3, 21, 174
157, 45, 44, 174, 175
158, 46, 45, 175, 176
159, 47, 46, 176, 177
160, 48, 47, 177, 178
161, 49, 48, 178, 179
162, 50, 49, 179, 180
163, 51, 50, 180, 181
164, 52, 51, 181, 182
165, 53, 52, 182, 183
166, 54, 53, 183, 184
167, 55, 54, 184, 185
168, 56, 55, 185, 186
169, 57, 56, 186, 187
170, 58, 57, 187, 188
171, 59, 58, 188, 189
172, 60, 59, 189, 190
173, 61, 60, 190, 191
174, 2, 61, 191, 66
175, 21, 22, 192, 174
176, 22, 23, 193, 192
177, 23, 24, 194, 193
178, 24, 25, 195, 194
179, 25, 4, 26, 195
180, 26, 27, 196, 195
181, 27, 28, 197, 196
182, 28, 29, 198, 197
183, 29, 30, 199, 198
184, 30, 31, 200, 199
185, 31, 32, 201, 200
186, 32, 33, 202, 201
187, 33, 34, 203, 202
188, 34, 35, 204, 203
189, 35, 36, 205, 204
190, 36, 37, 206, 205
191, 37, 38, 207, 206
192, 38, 39, 208, 207
193, 39, 40, 209, 208
194, 40, 41, 210, 209
195, 41, 42, 211, 210
196, 42, 43, 212, 211
197, 43, 1, 62, 212
198, 62, 63, 213, 212
199, 63, 64, 214, 213
200, 64, 65, 215, 214
201, 65, 66, 191, 215
202, 175, 174, 192, 216
203, 176, 175, 216, 217
204, 177, 176, 217, 218
205, 178, 177, 218, 219
206, 179, 178, 219, 220
207, 180, 179, 220, 221
208, 181, 180, 221, 222
209, 182, 181, 222, 223
210, 183, 182, 223, 224
211, 184, 183, 224, 225
212, 185, 184, 225, 226
213, 186, 185, 226, 227
214, 187, 186, 227, 228
215, 188, 187, 228, 229
216, 189, 188, 229, 230
217, 190, 189, 230, 231
218, 191, 190, 231, 215
219, 193, 194, 232, 233
220, 194, 195, 196, 232
221, 196, 197, 234, 232
222, 197, 198, 235, 234
223, 198, 199, 236, 235
224, 199, 200, 237, 236
225, 200, 201, 238, 237
226, 201, 202, 239, 238
227, 202, 203, 240, 239
228, 203, 204, 241, 240
229, 204, 205, 242, 241
230, 205, 206, 243, 242
231, 206, 207, 244, 243
232, 207, 208, 245, 244
233, 208, 209, 246, 245
234, 209, 210, 247, 246
235, 210, 211, 248, 247
236, 211, 212, 213, 248
237, 213, 214, 249, 248
238, 214, 215, 231, 249
239, 192, 193, 233, 216
240, 217, 216, 233, 250
241, 218, 217, 250, 251
242, 219, 218, 251, 252
243, 220, 219, 252, 253
244, 221, 220, 253, 254
245, 222, 221, 254, 255
246, 223, 222, 255, 256
247, 224, 223, 256, 257
248, 225, 224, 257, 258
249, 226, 225, 258, 259
250, 227, 226, 259, 260
251, 228, 227, 260, 261
252, 229, 228, 261, 262
253, 230, 229, 262, 263
254, 231, 230, 263, 249
255, 234, 235, 251, 250
256, 236, 237, 253, 252
257, 235, 236, 252, 251
258, 237, 238, 254, 253
259, 238, 239, 255, 254
260, 239, 240, 256, 255
261, 240, 241, 257, 256
262, 241, 242, 258, 257
263, 242, 243, 259, 258
264, 243, 244, 260, 259
*Element, Type=S4, Elset=bem_z2
265, 264, 268, 328, 275
266, 269, 270, 329, 328
267, 270, 271, 330, 329
268, 272, 265, 273, 330
269, 329, 274, 275, 328
272, 273, 274, 329, 330
273, 481, 482, 496, 495
274, 273, 265, 276, 331
275, 274, 273, 331, 332
276, 275, 274, 332, 280
277, 277, 278, 332, 331
278, 278, 279, 280, 332
281, 268, 264, 297, 333
282, 269, 268, 333, 334
283, 270, 269, 334, 335
284, 271, 270, 335, 336
285, 272, 271, 336, 337
286, 265, 272, 337, 319
287, 281, 266, 302, 338
288, 282, 281, 338, 339
289, 283, 282, 339, 340
290, 284, 283, 340, 341
291, 285, 284, 341, 342
292, 286, 285, 342, 343
293, 287, 286, 343, 344
294, 288, 287, 344, 345
295, 289, 288, 345, 346
296, 290, 289, 346, 347
297, 291, 290, 347, 348
298, 292, 291, 348, 349
299, 293, 292, 349, 350
300, 294, 293, 350, 351
301, 295, 294, 351, 352
302, 296, 295, 352, 353
303, 297, 296, 353, 333
304, 298, 267, 303, 354
305, 299, 298, 354, 355
306, 300, 299, 355, 356
307, 301, 300, 356, 357
308, 302, 301, 357, 338
309, 303, 304, 358, 354
310, 304, 305, 359, 358
311, 305, 306, 360, 359
312, 306, 307, 361, 360
313, 307, 308, 362, 361
314, 308, 309, 363, 362
315, 309, 310, 364, 363
316, 310, 311, 365, 364
317, 311, 312, 366, 365
318, 312, 313, 367, 366
319, 313, 314, 368, 367
320, 314, 315, 369, 368
321, 315, 316, 370, 369
322, 316, 317, 371, 370
323, 317, 318, 372, 371
324, 318, 319, 337, 372
325, 334, 333, 353, 373
326, 335, 334, 373, 374
327, 336, 335, 374, 375
328, 337, 336, 375, 372
329, 339, 338, 357, 376
330, 340, 339, 376, 377
331, 341, 340, 377, 378
332, 342, 341, 378, 379
333, 343, 342, 379, 380
334, 344, 343, 380, 381
335, 345, 344, 381, 382
336, 346, 345, 382, 383
337, 347, 346, 383, 384
338, 348, 347, 384, 385
339, 349, 348, 385, 386
340, 350, 349, 386, 387
341, 351, 350, 387, 388
342, 352, 351, 388, 389
343, 353, 352, 389, 373
344, 355, 354, 358, 390
345, 356, 355, 390, 391
346, 357, 356, 391, 376
347, 358, 359, 392, 390
348, 359, 360, 393, 392
349, 360, 361, 394, 393
350, 361, 362, 395, 394
351, 362, 363, 396, 395
352, 363, 364, 397, 396
353, 364, 365, 398, 397
354, 365, 366, 399, 398
355, 366, 367, 400, 399
356, 367, 368, 401, 400
357, 368, 369, 402, 401
358, 369, 370, 403, 402
359, 370, 371, 404, 403
360, 371, 372, 375, 404
361, 374, 373, 389, 405
362, 375, 374, 405, 404
363, 377, 376, 391, 406
364, 378, 377, 406, 407
365, 379, 378, 407, 408
366, 380, 379, 408, 409
367, 381, 380, 409, 410
368, 382, 381, 410, 411
369, 383, 382, 411, 412
370, 384, 383, 412, 413
371, 385, 384, 413, 414
372, 386, 385, 414, 415
373, 387, 386, 415, 416
374, 388, 387, 416, 417
375, 389, 388, 417, 405
376, 391, 390, 392, 406
377, 394, 395, 409, 408
378, 395, 396, 410, 409
379, 396, 397, 411, 410
380, 397, 398, 412, 411
381, 398, 399, 413, 412
382, 400, 401, 415, 414
383, 401, 402, 416, 415
384, 402, 403, 417, 416
385, 403, 404, 405, 417
386, 393, 394, 408, 407
387, 392, 393, 407, 406
388, 400, 414, 413, 399
389, 267, 298, 418, 322
390, 298, 299, 300, 418
392, 321, 322, 418, 419
394, 302, 266, 320, 419
395, 301, 419, 418, 300
396, 482, 483, 497, 496
397, 492, 493, 494, 506
398, 320, 266, 323, 420
399, 321, 320, 420, 421
400, 322, 321, 421, 326
401, 267, 322, 326, 327
402, 324, 325, 421, 420
405, 276, 265, 319, 422
406, 277, 276, 422, 423
407, 278, 277, 423, 424
408, 279, 278, 424, 425
409, 280, 279, 425, 426
410, 264, 280, 426, 297
411, 303, 267, 327, 427
412, 304, 303, 427, 428
413, 305, 304, 428, 429
414, 306, 305, 429, 430
415, 307, 306, 430, 431
416, 308, 307, 431, 432
417, 309, 308, 432, 433
418, 310, 309, 433, 434
419, 311, 310, 434, 435
420, 312, 311, 435, 436
421, 313, 312, 436, 437
422, 314, 313, 437, 438
423, 315, 314, 438, 439
424, 316, 315, 439, 440
425, 317, 316, 440, 441
426, 318, 317, 441, 442
427, 319, 318, 442, 422
428, 323, 266, 281, 443
429, 324, 323, 443, 444
430, 325, 324, 444, 445
431, 326, 325, 445, 446
432, 327, 326, 446, 427
433, 281, 282, 447, 443
434, 282, 283, 448, 447
435, 283, 284, 449, 448
436, 284, 285, 450, 449
437, 285, 286, 451, 450
438, 286, 287, 452, 451
439, 287, 288, 453, 452
440, 288, 289, 454, 453
441, 289, 290, 455, 454
442, 290, 291, 456, 455
443, 291, 292, 457, 456
444, 292, 293, 458, 457
445, 293, 294, 459, 458
446, 294, 295, 460, 459
447, 295, 296, 461, 460
448, 296, 297, 426, 461
449, 423, 422, 442, 462
450, 424, 423, 462, 463
451, 425, 424, 463, 464
452, 426, 425, 464, 461
453, 428, 427, 446, 465
454, 429, 428, 465, 466
455, 430, 429, 466, 467
456, 431, 430, 467, 468
457, 432, 431, 468, 469
458, 433, 432, 469, 470
459, 434, 433, 470, 471
460, 435, 434, 471, 472
461, 436, 435, 472, 473
462, 437, 436, 473, 474
463, 438, 437, 474, 475
464, 439, 438, 475, 476
465, 440, 439, 476, 477
466, 441, 440, 477, 478
467, 442, 441, 478, 462
468, 444, 443, 447, 479
469, 445, 444, 479, 480
470, 446, 445, 480, 465
471, 447, 448, 481, 479
472, 448, 449, 482, 481
473, 449, 450, 483, 482
474, 450, 451, 484, 483
475, 451, 452, 485, 484
476, 452, 453, 486, 485
477, 453, 454, 487, 486
478, 454, 455, 488, 487
479, 455, 456, 489, 488
480, 456, 457, 490, 489
481, 457, 458, 491, 490
482, 458, 459, 492, 491
483, 459, 460, 493, 492
484, 460, 461, 464, 493
485, 463, 462, 478, 494
486, 464, 463, 494, 493
487, 466, 465, 480, 495
488, 467, 466, 495, 496
489, 468, 467, 496, 497
490, 469, 468, 497, 498
491, 470, 469, 498, 499
492, 471, 470, 499, 500
493, 472, 471, 500, 501
494, 473, 472, 501, 502
495, 474, 473, 502, 503
496, 475, 474, 503, 504
497, 476, 475, 504, 505
498, 477, 476, 505, 506
499, 478, 477, 506, 494
500, 480, 479, 481, 495
501, 483, 484, 498, 497
502, 484, 485, 499, 498
503, 485, 486, 500, 499
504, 486, 487, 501, 500
505, 487, 488, 502, 501
506, 488, 489, 503, 502
507, 489, 490, 504, 503
508, 490, 491, 505, 504
509, 491, 492, 506, 505
*Element, Type=S3, Elset=bem_z2
270, 268, 269, 328
271, 271, 272, 330
279, 264, 275, 280
280, 276, 277, 331
391, 320, 321, 419
393, 301, 302, 419
403, 323, 324, 420
404, 325, 326, 421
*Element, Type=mics_S4, Elset=mics_z1
510, 517, 507, 536, 608
511, 508, 517, 608, 518
512, 519, 518, 608, 609
513, 520, 519, 609, 610
514, 521, 520, 610, 611
515, 522, 521, 611, 612
516, 523, 522, 612, 613
517, 524, 523, 613, 614
518, 525, 524, 614, 615
519, 526, 525, 615, 616
520, 527, 526, 616, 617
521, 528, 527, 617, 618
522, 529, 528, 618, 619
523, 530, 529, 619, 620
524, 531, 530, 620, 621
525, 532, 531, 621, 622
526, 533, 532, 622, 623
527, 534, 533, 623, 624
528, 509, 534, 624, 535
529, 510, 535, 624, 552
530, 537, 538, 610, 609
531, 539, 540, 612, 611
532, 541, 542, 614, 613
533, 542, 543, 615, 614
534, 543, 544, 616, 615
535, 544, 545, 617, 616
536, 546, 547, 619, 618
537, 548, 549, 621, 620
538, 550, 551, 623, 622
539, 551, 552, 624, 623
540, 610, 538, 539, 611
541, 541, 613, 612, 540
542, 617, 545, 546, 618
543, 619, 547, 548, 620
544, 550, 622, 621, 549
545, 536, 537, 609, 608
546, 553, 508, 518, 625
547, 511, 553, 625, 569
548, 512, 554, 626, 570
549, 554, 555, 627, 626
550, 555, 556, 628, 627
551, 556, 557, 629, 628
552, 557, 558, 630, 629
553, 558, 559, 631, 630
554, 559, 560, 632, 631
555, 560, 561, 633, 632
556, 561, 562, 634, 633
557, 562, 563, 635, 634
558, 563, 564, 636, 635
559, 564, 565, 637, 636
560, 565, 566, 638, 637
561, 566, 567, 639, 638
562, 567, 568, 640, 639
563, 568, 569, 625, 640
564, 509, 570, 626, 534
565, 519, 520, 639, 640
566, 521, 522, 637, 638
567, 523, 524, 635, 636
568, 525, 526, 633, 634
569, 527, 528, 631, 632
571, 531, 532, 628, 629
572, 532, 533, 627, 628
573, 533, 534, 626, 627
574, 527, 632, 633, 526
575, 525, 634, 635, 524
576, 523, 636, 637, 522
577, 521, 638, 639, 520
578, 518, 519, 640, 625
579, 529, 530, 629, 630
580, 529, 630, 631, 528
582, 571, 513, 573, 641
583, 508, 571, 641, 518
584, 519, 518, 641, 642
585, 520, 519, 642, 643
586, 521, 520, 643, 644
587, 522, 521, 644, 645
588, 523, 522, 645, 646
589, 524, 523, 646, 647
590, 525, 524, 647, 648
591, 526, 525, 648, 649
592, 527, 526, 649, 650
593, 528, 527, 650, 651
594, 529, 528, 651, 652
595, 530, 529, 652, 653
596, 531, 530, 653, 654
597, 532, 531, 654, 655
598, 533, 532, 655, 656
599, 534, 533, 656, 657
600, 509, 534, 657, 572
601, 514, 572, 657, 589
602, 574, 575, 643, 642
603, 576, 577, 645, 644
604, 578, 579, 647, 646
605, 580, 581, 649, 648
606, 581, 582, 650, 649
607, 583, 584, 652, 651
608, 585, 586, 654, 653
609, 587, 588, 656, 655
610, 588, 589, 657, 656
611, 643, 575, 576, 644
612, 578, 646, 645, 577
613, 580, 648, 647, 579
614, 650, 582, 583, 651
615, 652, 584, 585, 653
616, 587, 655, 654, 586
617, 573, 574, 642, 641
618, 590, 508, 518, 658
619, 515, 590, 658, 606
620, 516, 591, 659, 607
621, 591, 592, 660, 659
622, 592, 593, 661, 660
623, 593, 594, 662, 661
624, 594, 595, 663, 662
625, 595, 596, 664, 663
626, 596, 597, 665, 664
627, 597, 598, 666, 665
628, 598, 599, 667, 666
629, 599, 600, 668, 667
630, 600, 601, 669, 668
631, 601, 602, 670, 669
632, 602, 603, 671, 670
633, 603, 604, 672, 671
634, 604, 605, 673, 672
635, 605, 606, 658, 673
636, 509, 607, 659, 534
637, 519, 520, 672, 673
638, 521, 522, 670, 671
639, 523, 524, 668, 669
640, 525, 526, 666, 667
641, 527, 528, 664, 665
642, 529, 530, 662, 663
643, 531, 532, 660, 661
644, 533, 534, 659, 660
645, 531, 661, 662, 530
646, 529, 663, 664, 528
647, 527, 665, 666, 526
648, 525, 667, 668, 524
649, 523, 669, 670, 522
650, 521, 671, 672, 520
651, 518, 519, 673, 658
*Element, Type=mics_S3, Elset=mics_z1
570, 530, 531, 629
581, 532, 533, 660
*Element, Type=mics_S4, Elset=mics_z2
652, 674, 684, 780, 702
653, 684, 675, 704, 780
654, 676, 685, 781, 703
655, 685, 686, 782, 781
656, 686, 687, 783, 782
657, 687, 688, 784, 783
658, 688, 689, 785, 784
659, 689, 690, 786, 785
660, 690, 691, 787, 786
661, 691, 692, 788, 787
662, 692, 693, 789, 788
663, 693, 694, 790, 789
664, 694, 695, 791, 790
665, 695, 696, 792, 791
666, 696, 697, 793, 792
667, 697, 698, 794, 793
668, 698, 699, 795, 794
669, 699, 700, 796, 795
670, 700, 701, 797, 796
671, 701, 702, 780, 797
672, 677, 703, 781, 721
673, 704, 705, 797, 780
674, 706, 796, 797, 705
675, 707, 708, 794, 795
676, 720, 721, 781, 782
677, 710, 711, 791, 792
678, 711, 712, 790, 791
679, 712, 713, 789, 790
680, 709, 793, 794, 708
681, 715, 716, 786, 787
682, 717, 718, 784, 785
683, 718, 719, 783, 784
684, 714, 788, 789, 713
685, 714, 715, 787, 788
686, 717, 785, 786, 716
687, 709, 710, 792, 793
688, 720, 782, 783, 719
689, 706, 707, 795, 796
691, 838, 839, 692, 691
693, 836, 837, 689, 688
694, 696, 843, 844, 697
695, 678, 722, 798, 739
697, 679, 723, 799, 740
698, 723, 724, 800, 799
699, 800, 801, 687, 686
700, 802, 803, 690, 689
701, 726, 727, 802, 801
702, 727, 728, 803, 802
703, 728, 729, 804, 803
704, 729, 730, 805, 804
705, 730, 731, 806, 805
706, 731, 732, 807, 806
707, 732, 733, 808, 807
708, 733, 734, 809, 808
709, 734, 735, 810, 809
710, 735, 736, 811, 810
711, 736, 737, 812, 811
712, 737, 738, 813, 812
713, 738, 739, 798, 813
714, 676, 740, 799, 685
715, 724, 725, 801, 800
716, 688, 687, 801, 802
718, 691, 690, 803, 804
719, 692, 691, 804, 805
720, 694, 693, 806, 807
721, 696, 695, 808, 809
722, 698, 697, 810, 811
723, 699, 698, 811, 812
724, 700, 699, 812, 813
725, 701, 700, 813, 798
726, 806, 693, 692, 805
727, 694, 807, 808, 695
728, 696, 809, 810, 697
729, 685, 799, 800, 686
730, 842, 695, 694, 841
732, 702, 701, 798, 722
733, 674, 741, 814, 702
734, 741, 680, 743, 814
735, 676, 685, 815, 742
736, 685, 686, 816, 815
737, 686, 687, 817, 816
738, 687, 688, 818, 817
739, 688, 689, 819, 818
740, 689, 690, 820, 819
741, 690, 691, 821, 820
742, 691, 692, 822, 821
743, 692, 693, 823, 822
744, 693, 694, 824, 823
745, 694, 695, 825, 824
746, 695, 696, 826, 825
747, 696, 697, 827, 826
748, 697, 698, 828, 827
749, 698, 699, 829, 828
750, 699, 700, 830, 829
751, 700, 701, 831, 830
752, 701, 702, 814, 831
753, 681, 742, 815, 759
754, 743, 744, 831, 814
755, 758, 816, 817, 757
756, 746, 747, 827, 828
757, 748, 749, 825, 826
758, 749, 750, 824, 825
759, 750, 751, 823, 824
760, 752, 753, 821, 822
761, 754, 755, 819, 820
762, 756, 757, 817, 818
763, 758, 759, 815, 816
764, 756, 818, 819, 755
765, 754, 820, 821, 753
766, 752, 822, 823, 751
767, 748, 826, 827, 747
768, 746, 828, 829, 745
770, 702, 701, 848, 832
771, 830, 831, 744, 745
772, 682, 760, 832, 778
773, 760, 674, 702, 832
774, 683, 761, 833, 779
775, 761, 762, 834, 833
776, 762, 763, 835, 834
777, 763, 764, 836, 835
778, 765, 766, 837, 836
779, 686, 685, 833, 834
780, 766, 767, 838, 837
781, 767, 768, 839, 838
782, 768, 769, 840, 839
783, 769, 770, 841, 840
784, 770, 771, 842, 841
785, 771, 772, 843, 842
786, 772, 773, 844, 843
787, 773, 774, 845, 844
788, 774, 775, 846, 845
789, 775, 776, 847, 846
790, 776, 777, 848, 847
791, 777, 778, 832, 848
792, 676, 779, 833, 685
793, 686, 834, 835, 687
794, 688, 687, 835, 836
795, 700, 699, 846, 847
796, 690, 689, 837, 838
797, 701, 700, 847, 848
798, 693, 692, 839, 840
799, 694, 693, 840, 841
800, 696, 695, 842, 843
801, 698, 697, 844, 845
802, 699, 698, 845, 846
*Element, Type=mics_S3, Elset=mics_z2
690, 838, 691, 690
692, 764, 765, 836
696, 802, 689, 688
717, 726, 801, 725
731, 674, 702, 722
769, 829, 830, 745
**
** Node sets +++++++++++++++++++++++++++++++++++++++++++++++
**
*Nset, Nset=Internal-1_inlet
1, 2, 5, 6, 7, 8, 9, 10, 11, 12, 62, 63, 64, 65, 66, 67,
68, 69, 168, 169, 170, 171, 172, 173
*Nset, Nset=Internal-1_outlet
266, 267, 298, 299, 300, 301, 302, 320, 321, 322, 323, 324, 325, 326, 327, 418,
419, 420, 421
*Nset, Nset=Internal-1_Internal_Selection-1_Tie-1_Master
264, 265, 268, 269, 270, 271, 272, 273, 274, 275, 276, 277, 278, 279, 280, 328,
329, 330, 331, 332
*Nset, Nset=Internal-1_Internal_Selection-1_Tie-1_Slave
3, 4, 13, 14, 15, 16, 17, 18, 19, 20, 21, 22, 23, 24, 25, 70,
71, 72, 73, 74, 75, 76, 77
**
** Element sets ++++++++++++++++++++++++++++++++++++++++++++
**
*Elset, Elset=z1_bem
1, 2, 3, 4, 5, 6, 7, 8, 9, 10, 11, 12, 13, 14, 15, 16,
17, 18, 19, 20, 21, 22, 23, 24, 25, 26, 27, 28, 29, 30, 31, 32,
33, 34, 35, 36, 37, 38, 39, 40, 41, 42, 43, 44, 45, 46, 47, 48,
49, 50, 51, 52, 53, 54, 55, 56, 57, 58, 59, 60, 61, 62, 63, 64,
65, 66, 67, 68, 69, 70, 71, 72, 73, 74, 75, 76, 77, 78, 79, 80,
81, 82, 83, 84, 85, 86, 87, 88, 89, 90, 91, 92, 93, 94, 95, 96,
97, 98, 99, 100, 101, 102, 103, 104, 105, 106, 107, 108, 109, 110, 111, 112,
113, 114, 115, 116, 117, 118, 119, 120, 121, 122, 123, 124, 125, 126, 127, 128,
129, 130, 131, 132, 133, 134, 135, 136, 137, 138, 139, 140, 141, 142, 143, 144,
145, 146, 147, 148, 149, 150, 151, 152, 153, 154, 155, 156, 157, 158, 159, 160,
161, 162, 163, 164, 165, 166, 167, 168, 169, 170, 171, 172, 173, 174, 175, 176,
177, 178, 179, 180, 181, 182, 183, 184, 185, 186, 187, 188, 189, 190, 191, 192,
193, 194, 195, 196, 197, 198, 199, 200, 201, 202, 203, 204, 205, 206, 207, 208,
209, 210, 211, 212, 213, 214, 215, 216, 217, 218, 219, 220, 221, 222, 223, 224,
225, 226, 227, 228, 229, 230, 231, 232, 233, 234, 235, 236, 237, 238, 239, 240,
241, 242, 243, 244, 245, 246, 247, 248, 249, 250, 251, 252, 253, 254, 255, 256,
257, 258, 259, 260, 261, 262, 263, 264
*Elset, Elset=z2_bem
265, 266, 267, 268, 269, 270, 271, 272, 273, 274, 275, 276, 277, 278, 279, 280,
281, 282, 283, 284, 285, 286, 287, 288, 289, 290, 291, 292, 293, 294, 295, 296,
297, 298, 299, 300, 301, 302, 303, 304, 305, 306, 307, 308, 309, 310, 311, 312,
313, 314, 315, 316, 317, 318, 319, 320, 321, 322, 323, 324, 325, 326, 327, 328,
329, 330, 331, 332, 333, 334, 335, 336, 337, 338, 339, 340, 341, 342, 343, 344,
345, 346, 347, 348, 349, 350, 351, 352, 353, 354, 355, 356, 357, 358, 359, 360,
361, 362, 363, 364, 365, 366, 367, 368, 369, 370, 371, 372, 373, 374, 375, 376,
377, 378, 379, 380, 381, 382, 383, 384, 385, 386, 387, 388, 389, 390, 391, 392,
393, 394, 395, 396, 397, 398, 399, 400, 401, 402, 403, 404, 405, 406, 407, 408,
409, 410, 411, 412, 413, 414, 415, 416, 417, 418, 419, 420, 421, 422, 423, 424,
425, 426, 427, 428, 429, 430, 431, 432, 433, 434, 435, 436, 437, 438, 439, 440,
441, 442, 443, 444, 445, 446, 447, 448, 449, 450, 451, 452, 453, 454, 455, 456,
457, 458, 459, 460, 461, 462, 463, 464, 465, 466, 467, 468, 469, 470, 471, 472,
473, 474, 475, 476, 477, 478, 479, 480, 481, 482, 483, 484, 485, 486, 487, 488,
489, 490, 491, 492, 493, 494, 495, 496, 497, 498, 499, 500, 501, 502, 503, 504,
505, 506, 507, 508, 509
*Elset, Elset=z1_mics
510, 511, 512, 513, 514, 515, 516, 517, 518, 519, 520, 521, 522, 523, 524, 525,
526, 527, 528, 529, 530, 531, 532, 533, 534, 535, 536, 537, 538, 539, 540, 541,
542, 543, 544, 545, 546, 547, 548, 549, 550, 551, 552, 553, 554, 555, 556, 557,
558, 559, 560, 561, 562, 563, 564, 565, 566, 567, 568, 569, 570, 571, 572, 573,
574, 575, 576, 577, 578, 579, 580, 581, 582, 583, 584, 585, 586, 587, 588, 589,
590, 591, 592, 593, 594, 595, 596, 597, 598, 599, 600, 601, 602, 603, 604, 605,
606, 607, 608, 609, 610, 611, 612, 613, 614, 615, 616, 617, 618, 619, 620, 621,
622, 623, 624, 625, 626, 627, 628, 629, 630, 631, 632, 633, 634, 635, 636, 637,
638, 639, 640, 641, 642, 643, 644, 645, 646, 647, 648, 649, 650, 651
*Elset, Elset=z2_mics
652, 653, 654, 655, 656, 657, 658, 659, 660, 661, 662, 663, 664, 665, 666, 667,
668, 669, 670, 671, 672, 673, 674, 675, 676, 677, 678, 679, 680, 681, 682, 683,
684, 685, 686, 687, 688, 689, 690, 691, 692, 693, 694, 695, 696, 697, 698, 699,
700, 701, 702, 703, 704, 705, 706, 707, 708, 709, 710, 711, 712, 713, 714, 715,
716, 717, 718, 719, 720, 721, 722, 723, 724, 725, 726, 727, 728, 729, 730, 731,
732, 733, 734, 735, 736, 737, 738, 739, 740, 741, 742, 743, 744, 745, 746, 747,
748, 749, 750, 751, 752, 753, 754, 755, 756, 757, 758, 759, 760, 761, 762, 763,
764, 765, 766, 767, 768, 769, 770, 771, 772, 773, 774, 775, 776, 777, 778, 779,
780, 781, 782, 783, 784, 785, 786, 787, 788, 789, 790, 791, 792, 793, 794, 795,
796, 797, 798, 799, 800, 801, 802
*Elset, Elset=Internal-1_inlet_S2
1, 2, 3, 4, 5, 6, 7, 9, 10, 145, 146, 147, 148, 149, 150, 151,
152, 153, 154, 155
*Elset, Elset=Internal-1_outlet_S2
389, 390, 391, 392, 393, 394, 395, 398, 399, 400, 401, 402, 403, 404
*Elset, Elset=Internal-1_Internal_Selection-1_Tie-1_Master_S2
265, 266, 267, 268, 269, 270, 271, 272, 274, 275, 276, 277, 278, 279, 280
*Elset, Elset=Internal-1_Internal_Selection-1_Tie-1_Slave_S2
11, 12, 13, 14, 15, 16, 19, 20, 21, 22, 23, 24, 25, 26, 27, 28
**
** Surfaces ++++++++++++++++++++++++++++++++++++++++++++++++
**
*Surface, Name=inlet, Type=Element
Internal-1_inlet_S2, S2
*Surface, Name=outlet, Type=Element
Internal-1_outlet_S2, S2
*Surface, Name=Internal_Selection-1_Tie-1_Master, Type=Element
Internal-1_Internal_Selection-1_Tie-1_Master_S2, S2
*Surface, Name=Internal_Selection-1_Tie-1_Slave, Type=Element
Internal-1_Internal_Selection-1_Tie-1_Slave_S2, S2
**
** Physical constants ++++++++++++++++++++++++++++++++++++++
**
**
** Coordinate systems ++++++++++++++++++++++++++++++++++++++
**
**
** Materials +++++++++++++++++++++++++++++++++++++++++++++++
**
*Material, Name=z1_Air
*Density
1.21E-12
*Acoustic Medium
 0.1424,
** Bulk modulus (B): c = sqrt(B/Rho)
*Material, Name=z2_Air
*Density
1.21E-12
*Acoustic Medium
 0.1424,
** Bulk modulus (B): c = sqrt(B/Rho)
**
** Sections ++++++++++++++++++++++++++++++++++++++++++++++++
**
*Shell section, Elset=z1_bem, Material=z1_Air, Offset=0
1
*Shell section, Elset=z2_bem, Material=z2_Air, Offset=0
1
*Shell section, Elset=z1_mics, Material=z1_Air, Offset=0
1
*Shell section, Elset=z2_mics, Material=z2_Air, Offset=0
1
**
** Pre-tension sections ++++++++++++++++++++++++++++++++++++
**
**
** Constraints +++++++++++++++++++++++++++++++++++++++++++++
**
*Tie, Name=Tie-1, Position tolerance=1
Internal_Selection-1_Tie-1_Slave, Internal_Selection-1_Tie-1_Master
**
** Surface interactions ++++++++++++++++++++++++++++++++++++
**
**
** Contact pairs +++++++++++++++++++++++++++++++++++++++++++
**
**
** Amplitudes ++++++++++++++++++++++++++++++++++++++++++++++
**
**
** Initial conditions ++++++++++++++++++++++++++++++++++++++
**
**
** Steps +++++++++++++++++++++++++++++++++++++++++++++++++++
**
**
** Step-1 ++++++++++++++++++++++++++++++++++++++++++++++++++
**
*Step
*Steady state dynamics
20, 1200, 119, 1
** 20, 1200, 1181, 1
**
** Damping +++++++++++++++++++++++++++++++++++++++++++++++++
**
*Modal damping
1, 1000000, 0.01
**
** Controls ++++++++++++++++++++++++++++++++++++++++++++++++
**
**
** Output frequency ++++++++++++++++++++++++++++++++++++++++
**
**
** Boundary conditions +++++++++++++++++++++++++++++++++++++
**
*Boundary, op=New
** Ac. pressure DoF = 8
*Boundary, Load case=1
inlet, 8, 8, 2E-11
**
** Acoustic Impedance - on a Surface
** *Impedance, Load case=1
** inlet, 4.1503e-7
** outlet, 4.1503e-7
**
**
** Loads +++++++++++++++++++++++++++++++++++++++++++++++++++
**
*Cload, op=New
*Dload, op=New
** Name: Vels: Deactivated
** Acoustic Vels - on a Surface - DoF = 8
** *Cload, Load case=1
** inlet, 8, 5e-5
**
**
** Defined fields ++++++++++++++++++++++++++++++++++++++++++
**
**
** History outputs +++++++++++++++++++++++++++++++++++++++++
**
**
** Field outputs +++++++++++++++++++++++++++++++++++++++++++
**
**
** End step ++++++++++++++++++++++++++++++++++++++++++++++++
**
*End step
