**
** Heading +++++++++++++++++++++++++++++++++++++++++++++++++
**
*Heading
Hash: FU7FqNXE, Date: 09/16/2026, Unit system: MM_TON_S_C
tri_zones_pipe_1m.pmx
Check TRIAs vs QUADs
pyBEM tests | multi-zone implementation:
circular pipe with surfaces for BCs (vels & impedance)
Generic test model to calc open ends and
CASE 6: VELO @ INLET & IMPE(z = rho x c) @ OUTLET | OPen pipe both ends; i.e. no resonant peaks expected.
----------------------------------------
**
** Nodes +++++++++++++++++++++++++++++++++++++++++++++++++++
**
*Node
1, 5.00000000E+002, 0.00000000E+000, 5.00000000E+001
2, 5.00000000E+002, 0.00000000E+000, -5.00000000E+001
3, 1.00000000E+003, 0.00000000E+000, 5.00000000E+001
4, 1.00000000E+003, 0.00000000E+000, -5.00000000E+001
5, 5.00000000E+002, 2.36736702E+001, 4.40404057E+001
6, 5.00000000E+002, 4.33535351E+001, 2.49092553E+001
7, 5.00000000E+002, 4.99516467E+001, -2.19840592E+000
8, 5.00000000E+002, 4.28763328E+001, -2.57219767E+001
9, 5.00000000E+002, 2.49092553E+001, -4.33535351E+001
10, 5.00000000E+002, 0.00000000E+000, -2.35000000E+001
11, 5.00000000E+002, 0.00000000E+000, 3.40000000E+000
12, 5.00000000E+002, 0.00000000E+000, 2.69000000E+001
13, 5.00000000E+002, -2.57219767E+001, -4.28763328E+001
14, 5.00000000E+002, -4.45503262E+001, -2.26995250E+001
15, 5.00000000E+002, -4.99753280E+001, 1.57053795E+000
16, 5.00000000E+002, -4.26320082E+001, 2.61249282E+001
17, 5.00000000E+002, -2.36736702E+001, 4.40404057E+001
18, 9.70500000E+002, 0.00000000E+000, 5.00000000E+001
19, 9.42000000E+002, 0.00000000E+000, 5.00000000E+001
20, 9.13500000E+002, 0.00000000E+000, 5.00000000E+001
21, 8.86000000E+002, 0.00000000E+000, 5.00000000E+001
22, 8.59000000E+002, 0.00000000E+000, 5.00000000E+001
23, 8.31000000E+002, 0.00000000E+000, 5.00000000E+001
24, 8.03000000E+002, 0.00000000E+000, 5.00000000E+001
25, 7.75000000E+002, 0.00000000E+000, 5.00000000E+001
26, 7.47500000E+002, 0.00000000E+000, 5.00000000E+001
27, 7.18500000E+002, 0.00000000E+000, 5.00000000E+001
28, 6.89500000E+002, 0.00000000E+000, 5.00000000E+001
29, 6.61000000E+002, 0.00000000E+000, 5.00000000E+001
30, 6.32500000E+002, 0.00000000E+000, 5.00000000E+001
31, 6.04000000E+002, 0.00000000E+000, 5.00000000E+001
32, 5.78000000E+002, 0.00000000E+000, 5.00000000E+001
33, 5.52000000E+002, 0.00000000E+000, 5.00000000E+001
34, 5.26000000E+002, 0.00000000E+000, 5.00000000E+001
35, 1.00000000E+003, 2.36736702E+001, -4.40404057E+001
36, 1.00000000E+003, 4.23003553E+001, -2.66585810E+001
37, 1.00000000E+003, 4.99287091E+001, -2.66908449E+000
38, 1.00000000E+003, 4.52413526E+001, 2.12889646E+001
39, 1.00000000E+003, 2.73197173E+001, 4.18764020E+001
40, 9.74500000E+002, 0.00000000E+000, -5.00000000E+001
41, 9.49000000E+002, 0.00000000E+000, -5.00000000E+001
42, 9.23000000E+002, 0.00000000E+000, -5.00000000E+001
43, 8.96500000E+002, 0.00000000E+000, -5.00000000E+001
44, 8.69500000E+002, 0.00000000E+000, -5.00000000E+001
45, 8.41500000E+002, 0.00000000E+000, -5.00000000E+001
46, 8.11500000E+002, 0.00000000E+000, -5.00000000E+001
47, 7.82000000E+002, 0.00000000E+000, -5.00000000E+001
48, 7.52500000E+002, 0.00000000E+000, -5.00000000E+001
49, 7.23000000E+002, 0.00000000E+000, -5.00000000E+001
50, 6.93500000E+002, 0.00000000E+000, -5.00000000E+001
51, 6.64000000E+002, 0.00000000E+000, -5.00000000E+001
52, 6.35500000E+002, 0.00000000E+000, -5.00000000E+001
53, 6.07000000E+002, 0.00000000E+000, -5.00000000E+001
54, 5.79000000E+002, 0.00000000E+000, -5.00000000E+001
55, 5.51000000E+002, 0.00000000E+000, -5.00000000E+001
56, 5.25000000E+002, 0.00000000E+000, -5.00000000E+001
57, 1.00000000E+003, 0.00000000E+000, 2.30000000E+001
58, 1.00000000E+003, 0.00000000E+000, -2.40000000E+000
59, 1.00000000E+003, 0.00000000E+000, -2.63000000E+001
60, 1.00000000E+003, -2.71880241E+001, 4.19620226E+001
61, 1.00000000E+003, -4.51742482E+001, 2.14309892E+001
62, 1.00000000E+003, -4.99013364E+001, -3.13952598E+000
63, 1.00000000E+003, -4.18764020E+001, -2.73197173E+001
64, 1.00000000E+003, -2.38119102E+001, -4.39658155E+001
65, 5.00000000E+002, 2.25633651E+001, 1.36743648E+001
66, 5.00000000E+002, 2.30106569E+001, -1.25478204E+001
67, 5.00000000E+002, -2.26658079E+001, 1.47047514E+001
68, 5.00000000E+002, -2.36255698E+001, -1.08762646E+001
69, 5.22931023E+002, 3.35462621E+001, 3.70762498E+001
70, 5.24058097E+002, 4.81895484E+001, 1.33329451E+001
71, 5.22043717E+002, 4.82034276E+001, -1.32826793E+001
72, 5.21654996E+002, 3.40960235E+001, -3.65713164E+001
73, 9.57116656E+002, 2.22435172E+001, 4.47797492E+001
74, 9.29975636E+002, 2.39984629E+001, 4.38642654E+001
75, 9.01762054E+002, 2.34000597E+001, 4.41863916E+001
76, 8.73405463E+002, 2.21835615E+001, 4.48094811E+001
77, 8.45245868E+002, 2.14946554E+001, 4.51439895E+001
78, 8.17160937E+002, 2.15902741E+001, 4.50983377E+001
79, 7.89202726E+002, 2.20535440E+001, 4.48736136E+001
80, 7.61501380E+002, 2.29834171E+001, 4.44045329E+001
81, 7.33341769E+002, 2.38249407E+001, 4.39587557E+001
82, 7.04568450E+002, 2.41690352E+001, 4.37705122E+001
83, 6.75637879E+002, 2.48181563E+001, 4.34057498E+001
84, 6.47692858E+002, 2.47466778E+001, 4.34465412E+001
85, 6.20180185E+002, 2.37920522E+001, 4.39765648E+001
86, 5.92666361E+002, 2.27703622E+001, 4.45141619E+001
87, 5.66356795E+002, 2.30178908E+001, 4.43866726E+001
88, 9.76895714E+002, 3.30188361E+001, -3.75467237E+001
89, 9.76445495E+002, 4.75634250E+001, -1.54181906E+001
90, 9.76538712E+002, 4.87377988E+001, 1.11636450E+001
91, 9.76477373E+002, 3.70335560E+001, 3.35933882E+001
92, 9.57228022E+002, 2.18194739E+001, -4.49878935E+001
93, 9.08590323E+002, 2.23619211E+001, -4.47207388E+001
94, 8.54391016E+002, 2.09244863E+001, -4.54110765E+001
95, 7.97672724E+002, 2.40486164E+001, -4.38367888E+001
96, 7.37366494E+002, 2.58859166E+001, -4.27775563E+001
97, 6.78279564E+002, 2.51992978E+001, -4.31855924E+001
98, 6.21880161E+002, 2.42120149E+001, -4.37467523E+001
99, 5.68654020E+002, 2.05524419E+001, -4.55806662E+001
100, 5.44037485E+002, 2.41066639E+001, -4.38048942E+001
101, 9.80476202E+002, 1.81797250E+001, 4.65778660E+001
102, 5.42783922E+002, 2.17405478E+001, 4.50260878E+001
103, 9.33528397E+002, 2.40742916E+001, -4.38226937E+001
104, 8.80752798E+002, 2.01788975E+001, -4.57472633E+001
105, 8.26619267E+002, 2.17211191E+001, -4.50354636E+001
106, 7.67901308E+002, 2.59394143E+001, -4.27451376E+001
107, 7.07767792E+002, 2.53072046E+001, -4.31224465E+001
108, 6.49656212E+002, 2.50431885E+001, -4.32763065E+001
109, 5.94905433E+002, 2.24156224E+001, -4.46938460E+001
110, 9.16269811E+002, 4.38227154E+001, -2.40742520E+001
111, 5.45320999E+002, 4.99997902E+001, -1.44851918E-001
112, 5.42095404E+002, 4.33204639E+001, -2.49667261E+001
113, 9.48815473E+002, 4.30046951E+001, 2.55067873E+001
114, 9.49180694E+002, 4.23378111E+001, -2.65990555E+001
115, 9.17489969E+002, 4.18852975E+001, 2.73060773E+001
116, 8.88523730E+002, 4.05941645E+001, 2.91909885E+001
117, 8.59673019E+002, 3.94688473E+001, 3.06954409E+001
118, 8.31264389E+002, 3.88299212E+001, 3.14997972E+001
119, 8.03575607E+002, 3.93185571E+001, 3.08877170E+001
120, 7.75824375E+002, 4.06658659E+001, 2.90910183E+001
121, 7.48057661E+002, 4.18646285E+001, 2.73377556E+001
122, 7.19600361E+002, 4.25658926E+001, 2.62325139E+001
123, 6.90519707E+002, 4.27517606E+001, 2.59284972E+001
124, 6.62058401E+002, 4.25231657E+001, 2.63017182E+001
125, 6.33772288E+002, 4.21840488E+001, 2.68422433E+001
126, 6.06920325E+002, 4.05380493E+001, 2.92688667E+001
127, 5.79288511E+002, 4.02429409E+001, 2.96733164E+001
128, 7.51847788E+002, 4.41955441E+001, -2.33827689E+001
129, 9.55938741E+002, 4.99922582E+001, -8.79841026E-001
130, 7.83809266E+002, 4.45815328E+001, -2.26381742E+001
131, 8.67549605E+002, 3.79431343E+001, -3.25625331E+001
132, 8.14559131E+002, 3.97841257E+001, -3.02856953E+001
133, 6.63151579E+002, 4.34767896E+001, -2.46934965E+001
134, 8.92322751E+002, 3.68188659E+001, -3.38285547E+001
135, 6.07428885E+002, 4.16678553E+001, -2.76367479E+001
136, 6.92181332E+002, 4.36649819E+001, -2.43591740E+001
137, 6.34607246E+002, 4.31968952E+001, -2.51799174E+001
138, 8.41789239E+002, 3.85767185E+001, -3.18093821E+001
139, 5.49849845E+002, 4.20995928E+001, 2.69745119E+001
140, 5.82222797E+002, 3.90039036E+001, -3.12841094E+001
141, 7.21753433E+002, 4.38779195E+001, -2.39734892E+001
142, 5.60247419E+002, 3.65326383E+001, -3.41374624E+001
143, 7.35165189E+002, 4.99818530E+001, 1.34698571E+000
144, 9.02313698E+002, 4.96962341E+001, 5.50311913E+000
145, 8.73210692E+002, 4.90948466E+001, 9.47079908E+000
146, 8.45306497E+002, 4.88036930E+001, 1.08719615E+001
147, 8.18091900E+002, 4.87017817E+001, 1.13197375E+001
148, 7.90809819E+002, 4.93076179E+001, 8.29209339E+000
149, 7.64014564E+002, 4.98981829E+001, 3.18925504E+000
150, 6.76868925E+002, 4.99994870E+001, 2.26500697E-001
151, 6.47687390E+002, 4.99997217E+001, 1.66817280E-001
152, 6.16910065E+002, 4.99975866E+001, 4.91254472E-001
153, 5.92663448E+002, 4.83551480E+001, 1.27192635E+001
154, 9.30729687E+002, 4.99872450E+001, 1.12930875E+000
155, 5.69756894E+002, 4.92639621E+001, 8.54763347E+000
156, 7.05979988E+002, 4.99962717E+001, 6.10583027E-001
157, 8.57255623E+002, 4.84772049E+001, -1.22458403E+001
158, 8.07154634E+002, 4.90599066E+001, -9.65015889E+000
159, 5.65074445E+002, 4.76755238E+001, -1.50679935E+001
160, 8.30559517E+002, 4.87347625E+001, -1.11768925E+001
161, 5.89501358E+002, 4.90698393E+001, -9.59952430E+000
162, 8.85311420E+002, 4.80310106E+001, -1.38932364E+001
163, 1.00000000E+003, 2.26416077E+001, -1.46861167E+001
164, 1.00000000E+003, 2.36168559E+001, 1.10222362E+001
165, 1.00000000E+003, -2.25707666E+001, -1.50766575E+001
166, 1.00000000E+003, -2.34552418E+001, 1.06258915E+001
167, 5.23307492E+002, -3.44793898E+001, -3.62101046E+001
168, 5.24132288E+002, -4.84046986E+001, -1.25293717E+001
169, 5.22269917E+002, -4.80591596E+001, 1.37955493E+001
170, 5.21836808E+002, -3.30533324E+001, 3.75163593E+001
171, 9.63772948E+002, -2.20905111E+001, -4.48554268E+001
172, 9.35799156E+002, -2.38339821E+001, -4.39538542E+001
173, 9.07334933E+002, -2.38377814E+001, -4.39517938E+001
174, 8.80447250E+002, -2.30009984E+001, -4.43954285E+001
175, 8.53242261E+002, -2.16389069E+001, -4.50750231E+001
176, 8.24911586E+002, -2.06437559E+001, -4.55393823E+001
177, 7.96654567E+002, -2.07342139E+001, -4.54982678E+001
178, 7.68458364E+002, -2.14187179E+001, -4.51800678E+001
179, 7.38353878E+002, -2.15611409E+001, -4.51122733E+001
180, 7.08183047E+002, -2.15497448E+001, -4.51177182E+001
181, 6.79129982E+002, -2.08139745E+001, -4.54618353E+001
182, 6.50326876E+002, -2.08615652E+001, -4.54400165E+001
183, 6.22920274E+002, -2.13977206E+001, -4.51900161E+001
184, 5.95124522E+002, -2.22070025E+001, -4.47978687E+001
185, 5.67390121E+002, -2.27021032E+001, -4.45490124E+001
186, 9.83020750E+002, -3.96678442E+001, 3.04378406E+001
187, 9.79401700E+002, -4.88929337E+001, 1.04633186E+001
188, 9.77013992E+002, -4.82617173E+001, -1.30693016E+001
189, 9.50838159E+002, -2.40877149E+001, 4.38153169E+001
190, 8.98577902E+002, -2.46218037E+001, 4.35174308E+001
191, 8.44212415E+002, -2.34426737E+001, 4.41637980E+001
192, 7.87676478E+002, -2.20310141E+001, 4.48846791E+001
193, 7.31255052E+002, -2.19084236E+001, 4.49446435E+001
194, 6.74320758E+002, -2.14831993E+001, 4.51494424E+001
195, 6.19603853E+002, -2.21708390E+001, 4.48157773E+001
196, 5.68636896E+002, -1.97459775E+001, 4.59357853E+001
197, 5.43786258E+002, -2.29103128E+001, 4.44422948E+001
198, 9.73181184E+002, -2.62939265E+001, 4.25279841E+001
199, 8.71629755E+002, -2.42994278E+001, 4.36982586E+001
200, 5.43242156E+002, -2.20568861E+001, -4.48719709E+001
201, 9.25553173E+002, -2.43667092E+001, 4.36607774E+001
202, 9.77723383E+002, -3.74153749E+001, -3.31676005E+001
203, 8.16064537E+002, -2.25469937E+001, 4.46277164E+001
204, 7.59704859E+002, -2.18794365E+001, 4.49587618E+001
205, 7.02882150E+002, -2.14809067E+001, 4.51505332E+001
206, 6.46444033E+002, -2.22248176E+001, 4.47890331E+001
207, 5.93279307E+002, -2.10483074E+001, 4.53538174E+001
208, 8.84804318E+002, -4.33012298E+001, 2.50000699E+001
209, 5.46484527E+002, -4.99984751E+001, 3.90497090E-001
210, 5.42410145E+002, -4.28976004E+001, 2.56864921E+001
211, 7.72082584E+002, -3.98625383E+001, 3.01824128E+001
212, 9.50887474E+002, -4.29376684E+001, -2.56194582E+001
213, 9.18666797E+002, -4.26767276E+001, -2.60518123E+001
214, 8.90435849E+002, -4.19046298E+001, -2.72764001E+001
215, 8.64167724E+002, -3.95895027E+001, -3.05396673E+001
216, 8.37247135E+002, -3.76182264E+001, -3.29373502E+001
217, 8.10455045E+002, -3.77813204E+001, -3.27501424E+001
218, 7.82766656E+002, -3.81650225E+001, -3.23021835E+001
219, 7.54345844E+002, -3.87016778E+001, -3.16572288E+001
220, 7.23980809E+002, -3.90618285E+001, -3.12117535E+001
221, 6.93760866E+002, -3.93096561E+001, -3.08990442E+001
222, 6.64608975E+002, -3.77728318E+001, -3.27599325E+001
223, 6.37567579E+002, -3.76598368E+001, -3.28897658E+001
224, 6.11090251E+002, -3.88772919E+001, -3.14413132E+001
225, 5.82491358E+002, -4.03605974E+001, -2.95130848E+001
226, 9.38337314E+002, -4.26628709E+001, 2.60744980E+001
227, 9.55517795E+002, -4.98580201E+001, 3.76534556E+000
228, 9.12217057E+002, -4.33041308E+001, 2.49950447E+001
229, 5.51645696E+002, -4.22522118E+001, -2.67348199E+001
230, 6.33179085E+002, -3.99385629E+001, 3.00817418E+001
231, 8.00520858E+002, -4.01675570E+001, 2.97752811E+001
232, 7.15599524E+002, -3.96112371E+001, 3.05114715E+001
233, 5.82176202E+002, -3.77179123E+001, 3.28231487E+001
234, 6.59791241E+002, -3.93048546E+001, 3.09051518E+001
235, 7.43307305E+002, -3.97223915E+001, 3.03666200E+001
236, 6.06590140E+002, -3.90489970E+001, 3.12278055E+001
237, 6.87389626E+002, -3.85968809E+001, 3.17849144E+001
238, 8.28715622E+002, -4.06953862E+001, 2.90497081E+001
239, 8.56989777E+002, -4.21083976E+001, 2.69607650E+001
240, 9.61968720E+002, -4.16244931E+001, 2.77020139E+001
241, 5.60362077E+002, -3.59142416E+001, 3.47874582E+001
242, 9.28849034E+002, -4.99997326E+001, -1.63522135E-001
243, 9.00312149E+002, -4.99714904E+001, -1.68823648E+000
244, 8.70128469E+002, -4.99331531E+001, -2.58461203E+000
245, 7.69359021E+002, -4.83866516E+001, -1.25988868E+001
246, 7.39922515E+002, -4.86918448E+001, -1.13624050E+001
247, 7.10184060E+002, -4.88558316E+001, -1.06352115E+001
248, 6.77249543E+002, -4.91693052E+001, -9.07631130E+000
249, 6.50780970E+002, -4.72250393E+001, -1.64254578E+001
250, 6.26894290E+002, -4.82726138E+001, -1.30289968E+001
251, 6.00284781E+002, -4.88515627E+001, -1.06548026E+001
252, 5.72780378E+002, -4.94050331E+001, -7.69042944E+000
253, 6.17820786E+002, -4.88974842E+001, 1.04420322E+001
254, 7.84720138E+002, -4.92065716E+001, 8.87205212E+000
255, 8.23944339E+002, -4.79543792E+001, -1.41554766E+001
256, 7.97359423E+002, -4.81838553E+001, -1.33535047E+001
257, 5.91212859E+002, -4.84290410E+001, 1.24349503E+001
258, 8.47808063E+002, -4.75513280E+001, -1.54554587E+001
259, 5.66153704E+002, -4.73315956E+001, 1.61158326E+001
260, 8.12744217E+002, -4.93218996E+001, 8.20671819E+000
261, 6.99185326E+002, -4.87974527E+001, 1.08999364E+001
262, 6.47893757E+002, -4.94063577E+001, 7.68191477E+000
263, 8.40406550E+002, -4.95783725E+001, 6.47958169E+000
264, 7.55958156E+002, -4.91153740E+001, 9.36376211E+000
265, 7.26958562E+002, -4.89441803E+001, 1.02209205E+001
266, 6.73660916E+002, -4.78398470E+001, 1.45378485E+001
507, 4.90000000E+002, 4.00000000E+001, -2.40000000E-015
508, 4.90000000E+002, 0.00000000E+000, 0.00000000E+000
509, 1.00000000E+001, 0.00000000E+000, 0.00000000E+000
510, 1.00000000E+001, 4.00000000E+001, -2.40000000E-015
511, 4.90000000E+002, -4.00000000E+001, 2.40000000E-015
512, 1.00000000E+001, -4.00000000E+001, 2.40000000E-015
513, 4.90000000E+002, 0.00000000E+000, -4.00000000E+001
514, 1.00000000E+001, 0.00000000E+000, -4.00000000E+001
515, 4.90000000E+002, 0.00000000E+000, 4.00000000E+001
516, 1.00000000E+001, 0.00000000E+000, 4.00000000E+001
517, 4.90000000E+002, 2.01200000E+001, -1.20000000E-015
518, 4.69360000E+002, 0.00000000E+000, 0.00000000E+000
519, 4.48720000E+002, 0.00000000E+000, 0.00000000E+000
520, 4.23280000E+002, 0.00000000E+000, 0.00000000E+000
521, 3.94000000E+002, 0.00000000E+000, 0.00000000E+000
522, 3.64240000E+002, 0.00000000E+000, 0.00000000E+000
523, 3.34480000E+002, 0.00000000E+000, 0.00000000E+000
524, 3.04720000E+002, 0.00000000E+000, 0.00000000E+000
525, 2.74960000E+002, 0.00000000E+000, 0.00000000E+000
526, 2.45200000E+002, 0.00000000E+000, 0.00000000E+000
527, 2.15440000E+002, 0.00000000E+000, 0.00000000E+000
528, 1.85680000E+002, 0.00000000E+000, 0.00000000E+000
529, 1.56400000E+002, 0.00000000E+000, 0.00000000E+000
530, 1.26640000E+002, 0.00000000E+000, 0.00000000E+000
531, 9.68800000E+001, 0.00000000E+000, 0.00000000E+000
532, 7.00000000E+001, 0.00000000E+000, 0.00000000E+000
533, 4.98400000E+001, 0.00000000E+000, 0.00000000E+000
534, 2.96800000E+001, 0.00000000E+000, 0.00000000E+000
535, 1.00000000E+001, 2.00800000E+001, -1.20000000E-015
536, 4.69840000E+002, 4.00000000E+001, -2.40000000E-015
537, 4.50160000E+002, 4.00000000E+001, -2.40000000E-015
538, 4.27600000E+002, 4.00000000E+001, -2.40000000E-015
539, 3.98320000E+002, 4.00000000E+001, -2.40000000E-015
540, 3.68560000E+002, 4.00000000E+001, -2.40000000E-015
541, 3.39280000E+002, 4.00000000E+001, -2.40000000E-015
542, 3.09520000E+002, 4.00000000E+001, -2.40000000E-015
543, 2.80240000E+002, 4.00000000E+001, -2.40000000E-015
544, 2.50480000E+002, 4.00000000E+001, -2.40000000E-015
545, 2.21200000E+002, 4.00000000E+001, -2.40000000E-015
546, 1.91920000E+002, 4.00000000E+001, -2.40000000E-015
547, 1.62160000E+002, 4.00000000E+001, -2.40000000E-015
548, 1.32880000E+002, 4.00000000E+001, -2.40000000E-015
549, 1.03120000E+002, 4.00000000E+001, -2.40000000E-015
550, 7.52800000E+001, 4.00000000E+001, -2.40000000E-015
551, 5.08000000E+001, 4.00000000E+001, -2.40000000E-015
552, 2.96800000E+001, 4.00000000E+001, -2.40000000E-015
553, 4.90000000E+002, -1.99600000E+001, 1.20000000E-015
554, 3.06400000E+001, -4.00000000E+001, 2.40000000E-015
555, 5.51200000E+001, -4.00000000E+001, 2.40000000E-015
556, 8.00800000E+001, -4.00000000E+001, 2.40000000E-015
557, 1.09840000E+002, -4.00000000E+001, 2.40000000E-015
558, 1.40560000E+002, -4.00000000E+001, 2.40000000E-015
559, 1.70800000E+002, -4.00000000E+001, 2.40000000E-015
560, 2.01040000E+002, -4.00000000E+001, 2.40000000E-015
561, 2.31280000E+002, -4.00000000E+001, 2.40000000E-015
562, 2.61520000E+002, -4.00000000E+001, 2.40000000E-015
563, 2.91760000E+002, -4.00000000E+001, 2.40000000E-015
564, 3.22000000E+002, -4.00000000E+001, 2.40000000E-015
565, 3.52720000E+002, -4.00000000E+001, 2.40000000E-015
566, 3.82960000E+002, -4.00000000E+001, 2.40000000E-015
567, 4.13200000E+002, -4.00000000E+001, 2.40000000E-015
568, 4.40560000E+002, -4.00000000E+001, 2.40000000E-015
569, 4.65520000E+002, -4.00000000E+001, 2.40000000E-015
570, 1.00000000E+001, -1.98800000E+001, 1.20000000E-015
571, 4.90000000E+002, 0.00000000E+000, -2.01200000E+001
572, 1.00000000E+001, 0.00000000E+000, -1.99200000E+001
573, 4.69840000E+002, 0.00000000E+000, -4.00000000E+001
574, 4.50160000E+002, 0.00000000E+000, -4.00000000E+001
575, 4.28080000E+002, 0.00000000E+000, -4.00000000E+001
576, 3.98800000E+002, 0.00000000E+000, -4.00000000E+001
577, 3.69520000E+002, 0.00000000E+000, -4.00000000E+001
578, 3.40240000E+002, 0.00000000E+000, -4.00000000E+001
579, 3.10960000E+002, 0.00000000E+000, -4.00000000E+001
580, 2.81680000E+002, 0.00000000E+000, -4.00000000E+001
581, 2.52400000E+002, 0.00000000E+000, -4.00000000E+001
582, 2.22640000E+002, 0.00000000E+000, -4.00000000E+001
583, 1.93360000E+002, 0.00000000E+000, -4.00000000E+001
584, 1.64080000E+002, 0.00000000E+000, -4.00000000E+001
585, 1.34800000E+002, 0.00000000E+000, -4.00000000E+001
586, 1.05520000E+002, 0.00000000E+000, -4.00000000E+001
587, 7.72000000E+001, 0.00000000E+000, -4.00000000E+001
588, 5.32000000E+001, 0.00000000E+000, -4.00000000E+001
589, 2.96800000E+001, 0.00000000E+000, -4.00000000E+001
590, 4.90000000E+002, 0.00000000E+000, 2.01200000E+001
591, 3.30400000E+001, 0.00000000E+000, 4.00000000E+001
592, 5.84800000E+001, 0.00000000E+000, 4.00000000E+001
593, 8.92000000E+001, 0.00000000E+000, 4.00000000E+001
594, 1.19440000E+002, 0.00000000E+000, 4.00000000E+001
595, 1.50160000E+002, 0.00000000E+000, 4.00000000E+001
596, 1.80880000E+002, 0.00000000E+000, 4.00000000E+001
597, 2.11120000E+002, 0.00000000E+000, 4.00000000E+001
598, 2.41840000E+002, 0.00000000E+000, 4.00000000E+001
599, 2.72560000E+002, 0.00000000E+000, 4.00000000E+001
600, 3.02800000E+002, 0.00000000E+000, 4.00000000E+001
601, 3.33520000E+002, 0.00000000E+000, 4.00000000E+001
602, 3.64240000E+002, 0.00000000E+000, 4.00000000E+001
603, 3.94480000E+002, 0.00000000E+000, 4.00000000E+001
604, 4.25200000E+002, 0.00000000E+000, 4.00000000E+001
605, 4.48720000E+002, 0.00000000E+000, 4.00000000E+001
606, 4.69840000E+002, 0.00000000E+000, 4.00000000E+001
607, 1.00000000E+001, 0.00000000E+000, 1.98800000E+001
608, 4.69395585E+002, 2.00339210E+001, -1.20000000E-015
609, 4.48312932E+002, 2.00099619E+001, -1.20000000E-015
610, 4.24222187E+002, 2.00033946E+001, -1.20000000E-015
611, 3.95875635E+002, 2.00010788E+001, -1.20000000E-015
612, 3.66394618E+002, 2.00002013E+001, -1.20000000E-015
613, 3.36853614E+002, 2.00000655E+001, -1.20000000E-015
614, 3.07157753E+002, 2.00000268E+001, -1.20000000E-015
615, 2.77582442E+002, 2.00000510E+001, -1.20000000E-015
616, 2.47886489E+002, 2.00000039E+001, -1.20000000E-015
617, 2.18344167E+002, 2.00000230E+001, -1.20000000E-015
618, 1.88805779E+002, 2.00000076E+001, -1.20000000E-015
619, 1.59292572E+002, 1.99999209E+001, -1.20000000E-015
620, 1.29833102E+002, 1.99996294E+001, -1.20000000E-015
621, 1.00620526E+002, 1.99987652E+001, -1.20000000E-015
622, 7.38326928E+001, 1.99938560E+001, -1.20000000E-015
623, 5.10312371E+001, 1.99999552E+001, -1.20000000E-015
624, 3.00832870E+001, 2.00190654E+001, -1.20000000E-015
625, 4.67335623E+002, -1.99837726E+001, 1.20000000E-015
626, 3.07420526E+001, -1.99725888E+001, 1.20000000E-015
627, 5.29627698E+001, -2.00024287E+001, 1.20000000E-015
628, 7.72830761E+001, -2.00838643E+001, 1.20000000E-015
629, 1.15742877E+002, -2.04337432E+001, 1.30000000E-015
630, 1.48112609E+002, -2.00699426E+001, 1.20000000E-015
631, 1.78288040E+002, -2.00118899E+001, 1.20000000E-015
632, 2.08295276E+002, -2.00020370E+001, 1.20000000E-015
633, 2.38295186E+002, -2.00003378E+001, 1.20000000E-015
634, 2.68294776E+002, -2.00000412E+001, 1.20000000E-015
635, 2.98300005E+002, -1.99999718E+001, 1.20000000E-015
636, 3.28339705E+002, -1.99999635E+001, 1.20000000E-015
637, 3.58486783E+002, -2.00002086E+001, 1.20000000E-015
638, 3.88374174E+002, -1.99997654E+001, 1.20000000E-015
639, 4.17574878E+002, -1.99975371E+001, 1.20000000E-015
640, 4.43916996E+002, -1.99880493E+001, 1.20000000E-015
641, 4.69406440E+002, 0.00000000E+000, -2.00339428E+001
642, 4.48361297E+002, 0.00000000E+000, -2.00103073E+001
643, 4.24435614E+002, 0.00000000E+000, -2.00044434E+001
644, 3.96152380E+002, 0.00000000E+000, -2.00012039E+001
645, 3.66857145E+002, 0.00000000E+000, -2.00000984E+001
646, 3.37375825E+002, 0.00000000E+000, -1.99999981E+001
647, 3.07862781E+002, 0.00000000E+000, -2.00000040E+001
648, 2.78339402E+002, 0.00000000E+000, -2.00000268E+001
649, 2.48783182E+002, 0.00000000E+000, -2.00000451E+001
650, 2.19095023E+002, 0.00000000E+000, -1.99999797E+001
651, 1.89577831E+002, 0.00000000E+000, -1.99999976E+001
652, 1.60239113E+002, 0.00000000E+000, -1.99997878E+001
653, 1.30831328E+002, 0.00000000E+000, -1.99991850E+001
654, 1.01738134E+002, 0.00000000E+000, -1.99978239E+001
655, 7.47664645E+001, 0.00000000E+000, -1.99895368E+001
656, 5.18859375E+001, 0.00000000E+000, -1.99902982E+001
657, 3.02720491E+001, 0.00000000E+000, -1.99804359E+001
658, 4.69233009E+002, 0.00000000E+000, 2.00298168E+001
659, 3.29389962E+001, 0.00000000E+000, 1.98409779E+001
660, 6.35467227E+001, 0.00000000E+000, 1.90229209E+001
661, 9.32357898E+001, 0.00000000E+000, 1.98429168E+001
662, 1.23141466E+002, 0.00000000E+000, 1.99745523E+001
663, 1.53306945E+002, 0.00000000E+000, 1.99958801E+001
664, 1.83321968E+002, 0.00000000E+000, 1.99994971E+001
665, 2.13344818E+002, 0.00000000E+000, 1.99999241E+001
666, 2.43546019E+002, 0.00000000E+000, 2.00000679E+001
667, 2.73744088E+002, 0.00000000E+000, 2.00000643E+001
668, 3.03801979E+002, 0.00000000E+000, 2.00000489E+001
669, 3.34001080E+002, 0.00000000E+000, 2.00002070E+001
670, 3.64170253E+002, 0.00000000E+000, 2.00005377E+001
671, 3.94023455E+002, 0.00000000E+000, 2.00023624E+001
672, 4.23003334E+002, 0.00000000E+000, 2.00033755E+001
673, 4.47615346E+002, 0.00000000E+000, 2.00063549E+001
674, 9.95000000E+002, 0.00000000E+000, 0.00000000E+000
675, 9.95000000E+002, 0.00000000E+000, -4.00000000E+001
676, 5.10000000E+002, 0.00000000E+000, 0.00000000E+000
677, 5.10000000E+002, 0.00000000E+000, -4.00000000E+001
678, 9.95000000E+002, 0.00000000E+000, 4.00000000E+001
679, 5.10000000E+002, 0.00000000E+000, 4.00000000E+001
680, 9.95000000E+002, 4.00000000E+001, -2.40000000E-015
681, 5.10000000E+002, 4.00000000E+001, -2.40000000E-015
682, 9.95000000E+002, -4.00000000E+001, 2.40000000E-015
683, 5.10000000E+002, -4.00000000E+001, 2.40000000E-015
684, 9.95000000E+002, 0.00000000E+000, -1.98800000E+001
685, 5.29885000E+002, 0.00000000E+000, 0.00000000E+000
686, 5.50255000E+002, 0.00000000E+000, 0.00000000E+000
687, 5.73050000E+002, 0.00000000E+000, 0.00000000E+000
688, 5.97300000E+002, 0.00000000E+000, 0.00000000E+000
689, 6.23975000E+002, 0.00000000E+000, 0.00000000E+000
690, 6.53075000E+002, 0.00000000E+000, 0.00000000E+000
691, 6.82660000E+002, 0.00000000E+000, 0.00000000E+000
692, 7.11760000E+002, 0.00000000E+000, 0.00000000E+000
693, 7.40860000E+002, 0.00000000E+000, 0.00000000E+000
694, 7.70445000E+002, 0.00000000E+000, 0.00000000E+000
695, 7.99545000E+002, 0.00000000E+000, 0.00000000E+000
696, 8.28645000E+002, 0.00000000E+000, 0.00000000E+000
697, 8.57745000E+002, 0.00000000E+000, 0.00000000E+000
698, 8.87330000E+002, 0.00000000E+000, 0.00000000E+000
699, 9.14975000E+002, 0.00000000E+000, 0.00000000E+000
700, 9.35830000E+002, 0.00000000E+000, 0.00000000E+000
701, 9.55715000E+002, 0.00000000E+000, 0.00000000E+000
702, 9.75600000E+002, 0.00000000E+000, 0.00000000E+000
703, 5.10000000E+002, 0.00000000E+000, -2.01600000E+001
704, 9.74630000E+002, 0.00000000E+000, -4.00000000E+001
705, 9.54260000E+002, 0.00000000E+000, -4.00000000E+001
706, 9.30010000E+002, 0.00000000E+000, -4.00000000E+001
707, 9.05275000E+002, 0.00000000E+000, -4.00000000E+001
708, 8.76175000E+002, 0.00000000E+000, -4.00000000E+001
709, 8.46590000E+002, 0.00000000E+000, -4.00000000E+001
710, 8.17490000E+002, 0.00000000E+000, -4.00000000E+001
711, 7.88390000E+002, 0.00000000E+000, -4.00000000E+001
712, 7.58805000E+002, 0.00000000E+000, -4.00000000E+001
713, 7.29705000E+002, 0.00000000E+000, -4.00000000E+001
714, 7.00605000E+002, 0.00000000E+000, -4.00000000E+001
715, 6.71505000E+002, 0.00000000E+000, -4.00000000E+001
716, 6.41920000E+002, 0.00000000E+000, -4.00000000E+001
717, 6.12820000E+002, 0.00000000E+000, -4.00000000E+001
718, 5.89055000E+002, 0.00000000E+000, -4.00000000E+001
719, 5.69170000E+002, 0.00000000E+000, -4.00000000E+001
720, 5.48800000E+002, 0.00000000E+000, -4.00000000E+001
721, 5.29400000E+002, 0.00000000E+000, -4.00000000E+001
722, 9.95000000E+002, 0.00000000E+000, 2.00800000E+001
723, 5.30370000E+002, 0.00000000E+000, 4.00000000E+001
724, 5.51225000E+002, 0.00000000E+000, 4.00000000E+001
725, 5.72080000E+002, 0.00000000E+000, 4.00000000E+001
726, 5.92935000E+002, 0.00000000E+000, 4.00000000E+001
727, 6.19610000E+002, 0.00000000E+000, 4.00000000E+001
728, 6.49680000E+002, 0.00000000E+000, 4.00000000E+001
729, 6.80235000E+002, 0.00000000E+000, 4.00000000E+001
730, 7.10790000E+002, 0.00000000E+000, 4.00000000E+001
731, 7.41345000E+002, 0.00000000E+000, 4.00000000E+001
732, 7.71415000E+002, 0.00000000E+000, 4.00000000E+001
733, 8.01970000E+002, 0.00000000E+000, 4.00000000E+001
734, 8.32525000E+002, 0.00000000E+000, 4.00000000E+001
735, 8.63080000E+002, 0.00000000E+000, 4.00000000E+001
736, 8.93150000E+002, 0.00000000E+000, 4.00000000E+001
737, 9.23705000E+002, 0.00000000E+000, 4.00000000E+001
738, 9.50380000E+002, 0.00000000E+000, 4.00000000E+001
739, 9.74630000E+002, 0.00000000E+000, 4.00000000E+001
740, 5.10000000E+002, 0.00000000E+000, 1.99200000E+001
741, 9.95000000E+002, 1.99600000E+001, -1.20000000E-015
742, 5.10000000E+002, 1.98000000E+001, -1.20000000E-015
743, 9.72690000E+002, 4.00000000E+001, -2.40000000E-015
744, 9.51350000E+002, 4.00000000E+001, -2.40000000E-015
745, 9.27100000E+002, 4.00000000E+001, -2.40000000E-015
746, 8.97030000E+002, 4.00000000E+001, -2.40000000E-015
747, 8.67445000E+002, 4.00000000E+001, -2.40000000E-015
748, 8.37860000E+002, 4.00000000E+001, -2.40000000E-015
749, 8.07790000E+002, 4.00000000E+001, -2.40000000E-015
750, 7.78205000E+002, 4.00000000E+001, -2.40000000E-015
751, 7.48135000E+002, 4.00000000E+001, -2.40000000E-015
752, 7.18550000E+002, 4.00000000E+001, -2.40000000E-015
753, 6.88480000E+002, 4.00000000E+001, -2.40000000E-015
754, 6.58895000E+002, 4.00000000E+001, -2.40000000E-015
755, 6.28825000E+002, 4.00000000E+001, -2.40000000E-015
756, 5.99240000E+002, 4.00000000E+001, -2.40000000E-015
757, 5.71595000E+002, 4.00000000E+001, -2.40000000E-015
758, 5.50740000E+002, 4.00000000E+001, -2.40000000E-015
759, 5.30370000E+002, 4.00000000E+001, -2.40000000E-015
760, 9.95000000E+002, -1.98800000E+001, 1.20000000E-015
761, 5.30370000E+002, -4.00000000E+001, 2.40000000E-015
762, 5.50255000E+002, -4.00000000E+001, 2.40000000E-015
763, 5.70625000E+002, -4.00000000E+001, 2.40000000E-015
764, 5.90995000E+002, -4.00000000E+001, 2.40000000E-015
765, 6.16215000E+002, -4.00000000E+001, 2.40000000E-015
766, 6.46285000E+002, -4.00000000E+001, 2.40000000E-015
767, 6.75870000E+002, -4.00000000E+001, 2.40000000E-015
768, 7.05455000E+002, -4.00000000E+001, 2.40000000E-015
769, 7.35525000E+002, -4.00000000E+001, 2.40000000E-015
770, 7.65110000E+002, -4.00000000E+001, 2.40000000E-015
771, 7.95180000E+002, -4.00000000E+001, 2.40000000E-015
772, 8.24765000E+002, -4.00000000E+001, 2.40000000E-015
773, 8.54350000E+002, -4.00000000E+001, 2.40000000E-015
774, 8.84420000E+002, -4.00000000E+001, 2.40000000E-015
775, 9.13035000E+002, -4.00000000E+001, 2.40000000E-015
776, 9.34375000E+002, -4.00000000E+001, 2.40000000E-015
777, 9.55230000E+002, -4.00000000E+001, 2.40000000E-015
778, 9.75115000E+002, -4.00000000E+001, 2.40000000E-015
779, 5.10000000E+002, -2.00000000E+001, 1.20000000E-015
780, 9.74927810E+002, 0.00000000E+000, -1.99673206E+001
781, 5.29843301E+002, 0.00000000E+000, -2.00447234E+001
782, 5.50052249E+002, 0.00000000E+000, -2.00113656E+001
783, 5.71420452E+002, 0.00000000E+000, -2.00047966E+001
784, 5.93900854E+002, 0.00000000E+000, -2.00081275E+001
785, 6.19207733E+002, 0.00000000E+000, -2.00041302E+001
786, 6.47717056E+002, 0.00000000E+000, -2.00010488E+001
787, 6.77039462E+002, 0.00000000E+000, -2.00001320E+001
788, 7.06180789E+002, 0.00000000E+000, -1.99999601E+001
789, 7.35311941E+002, 0.00000000E+000, -1.99996693E+001
790, 7.64631848E+002, 0.00000000E+000, -1.99994734E+001
791, 7.93947918E+002, 0.00000000E+000, -1.99999139E+001
792, 8.23074658E+002, 0.00000000E+000, -2.00006017E+001
793, 8.52202285E+002, 0.00000000E+000, -1.99994082E+001
794, 8.81413166E+002, 0.00000000E+000, -1.99971962E+001
795, 9.09054763E+002, 0.00000000E+000, -1.99896421E+001
796, 9.32552757E+002, 0.00000000E+000, -1.99931517E+001
797, 9.54435207E+002, 0.00000000E+000, -1.99932708E+001
798, 9.66034959E+002, 0.00000000E+000, 2.01006656E+001
799, 5.30682759E+002, 0.00000000E+000, 1.99975754E+001
800, 5.52715491E+002, 0.00000000E+000, 2.00840162E+001
801, 5.83411998E+002, 0.00000000E+000, 2.05770320E+001
802, 6.12753142E+002, 0.00000000E+000, 1.68595361E+001
803, 6.50456620E+002, 0.00000000E+000, 1.97383775E+001
804, 6.81287540E+002, 0.00000000E+000, 1.99602366E+001
805, 7.11257569E+002, 0.00000000E+000, 1.99935798E+001
806, 7.41096616E+002, 0.00000000E+000, 1.99990062E+001
807, 7.70917726E+002, 0.00000000E+000, 1.99999239E+001
808, 8.00727000E+002, 0.00000000E+000, 2.00001043E+001
809, 8.30530406E+002, 0.00000000E+000, 2.00003600E+001
810, 8.60300480E+002, 0.00000000E+000, 2.00014535E+001
811, 8.89770229E+002, 0.00000000E+000, 2.00076813E+001
812, 9.17788843E+002, 0.00000000E+000, 2.00072628E+001
813, 9.42148388E+002, 0.00000000E+000, 1.99961524E+001
814, 9.74445855E+002, 1.97297022E+001, -1.20000000E-015
815, 5.30343985E+002, 1.99488993E+001, -1.20000000E-015
816, 5.51137007E+002, 1.99905433E+001, -1.20000000E-015
817, 5.73434730E+002, 2.00035356E+001, -1.20000000E-015
818, 5.98893907E+002, 2.00049126E+001, -1.20000000E-015
819, 6.26702426E+002, 2.00015810E+001, -1.20000000E-015
820, 6.56014389E+002, 2.00004136E+001, -1.20000000E-015
821, 6.85547079E+002, 2.00001915E+001, -1.20000000E-015
822, 7.15089242E+002, 1.99999524E+001, -1.20000000E-015
823, 7.44528356E+002, 2.00000212E+001, -1.20000000E-015
824, 7.74225649E+002, 2.00002161E+001, -1.20000000E-015
825, 8.03639318E+002, 2.00006078E+001, -1.20000000E-015
826, 8.33149309E+002, 2.00012212E+001, -1.20000000E-015
827, 8.62464169E+002, 2.00050121E+001, -1.20000000E-015
828, 8.91346102E+002, 2.00234048E+001, -1.20000000E-015
829, 9.17857242E+002, 2.00170618E+001, -1.20000000E-015
830, 9.35661118E+002, 1.62959629E+001, -1.00000000E-015
831, 9.54390010E+002, 1.89465747E+001, -1.20000000E-015
832, 9.75223618E+002, -1.99670386E+001, 1.20000000E-015
833, 5.30254194E+002, -1.99998846E+001, 1.20000000E-015
834, 5.50822488E+002, -2.00098050E+001, 1.20000000E-015
835, 5.72732309E+002, -2.00407784E+001, 1.20000000E-015
836, 5.97540701E+002, -2.01478682E+001, 1.20000000E-015
837, 6.34613654E+002, -1.96477369E+001, 1.20000000E-015
838, 6.69725941E+002, -1.72883155E+001, 1.10000000E-015
839, 7.07613255E+002, -1.97889658E+001, 1.20000000E-015
840, 7.38055281E+002, -1.99673950E+001, 1.20000000E-015
841, 7.67766865E+002, -1.99947073E+001, 1.20000000E-015
842, 7.97342316E+002, -1.99992089E+001, 1.20000000E-015
843, 8.26712225E+002, -1.99999239E+001, 1.20000000E-015
844, 8.56044573E+002, -2.00003632E+001, 1.20000000E-015
845, 8.85311257E+002, -2.00010086E+001, 1.20000000E-015
846, 9.12370865E+002, -1.99993854E+001, 1.20000000E-015
847, 9.34501164E+002, -1.99961109E+001, 1.20000000E-015
848, 9.55176938E+002, -1.99901237E+001, 1.20000000E-015
849, 0.00000000E+000, 0.00000000E+000, 5.00000000E+001
850, 0.00000000E+000, 0.00000000E+000, -5.00000000E+001
851, 5.00000000E+002, 0.00000000E+000, -5.00000000E+001
852, 5.00000000E+002, 0.00000000E+000, 5.00000000E+001
853, 0.00000000E+000, 0.00000000E+000, 2.51000000E+001
854, 0.00000000E+000, 0.00000000E+000, -1.30000000E+000
855, 0.00000000E+000, 0.00000000E+000, -2.58000000E+001
856, 0.00000000E+000, 2.43625063E+001, -4.36631227E+001
857, 0.00000000E+000, 4.27953134E+001, -2.58565495E+001
858, 0.00000000E+000, 4.99960522E+001, -6.28301994E-001
859, 0.00000000E+000, 4.31961709E+001, 2.51811601E+001
860, 0.00000000E+000, 2.40876837E+001, 4.38153340E+001
861, 5.00000000E+002, 0.00000000E+000, -2.52000000E+001
862, 5.00000000E+002, 0.00000000E+000, -7.00000000E-001
863, 5.00000000E+002, 0.00000000E+000, 2.56000000E+001
864, 5.00000000E+002, 2.38119102E+001, 4.39658155E+001
865, 5.00000000E+002, 4.23003553E+001, 2.66585810E+001
866, 5.00000000E+002, 4.99753280E+001, 1.57053795E+000
867, 5.00000000E+002, 4.35863703E+001, -2.44995576E+001
868, 5.00000000E+002, 2.65255592E+001, -4.23838968E+001
869, 5.00000000E+002, -2.50453313E+001, -4.32750665E+001
870, 5.00000000E+002, -4.27953134E+001, -2.58565495E+001
871, 5.00000000E+002, -5.00000000E+001, -6.10000000E-015
872, 5.00000000E+002, -4.38907913E+001, 2.39499151E+001
873, 5.00000000E+002, -2.55871500E+001, 4.29569291E+001
874, 4.72000000E+002, 0.00000000E+000, 5.00000000E+001
875, 4.45000000E+002, 0.00000000E+000, 5.00000000E+001
876, 4.17500000E+002, 0.00000000E+000, 5.00000000E+001
877, 3.90000000E+002, 0.00000000E+000, 5.00000000E+001
878, 3.62000000E+002, 0.00000000E+000, 5.00000000E+001
879, 3.34500000E+002, 0.00000000E+000, 5.00000000E+001
880, 3.07000000E+002, 0.00000000E+000, 5.00000000E+001
881, 2.80000000E+002, 0.00000000E+000, 5.00000000E+001
882, 2.54500000E+002, 0.00000000E+000, 5.00000000E+001
883, 2.29000000E+002, 0.00000000E+000, 5.00000000E+001
884, 2.03000000E+002, 0.00000000E+000, 5.00000000E+001
885, 1.76500000E+002, 0.00000000E+000, 5.00000000E+001
886, 1.51000000E+002, 0.00000000E+000, 5.00000000E+001
887, 1.26000000E+002, 0.00000000E+000, 5.00000000E+001
888, 1.00500000E+002, 0.00000000E+000, 5.00000000E+001
889, 7.50000000E+001, 0.00000000E+000, 5.00000000E+001
890, 5.00000000E+001, 0.00000000E+000, 5.00000000E+001
891, 2.50000000E+001, 0.00000000E+000, 5.00000000E+001
892, 4.74500000E+002, 0.00000000E+000, -5.00000000E+001
893, 4.49500000E+002, 0.00000000E+000, -5.00000000E+001
894, 4.24000000E+002, 0.00000000E+000, -5.00000000E+001
895, 3.98000000E+002, 0.00000000E+000, -5.00000000E+001
896, 3.72000000E+002, 0.00000000E+000, -5.00000000E+001
897, 3.46000000E+002, 0.00000000E+000, -5.00000000E+001
898, 3.19500000E+002, 0.00000000E+000, -5.00000000E+001
899, 2.92500000E+002, 0.00000000E+000, -5.00000000E+001
900, 2.65000000E+002, 0.00000000E+000, -5.00000000E+001
901, 2.39000000E+002, 0.00000000E+000, -5.00000000E+001
902, 2.14000000E+002, 0.00000000E+000, -5.00000000E+001
903, 1.88000000E+002, 0.00000000E+000, -5.00000000E+001
904, 1.61000000E+002, 0.00000000E+000, -5.00000000E+001
905, 1.34000000E+002, 0.00000000E+000, -5.00000000E+001
906, 1.06500000E+002, 0.00000000E+000, -5.00000000E+001
907, 8.10000000E+001, 0.00000000E+000, -5.00000000E+001
908, 5.45000000E+001, 0.00000000E+000, -5.00000000E+001
909, 2.70000000E+001, 0.00000000E+000, -5.00000000E+001
910, 0.00000000E+000, -2.35351966E+001, 4.41145613E+001
911, 0.00000000E+000, -4.31961709E+001, 2.51811601E+001
912, 0.00000000E+000, -4.99938316E+001, 7.85365866E-001
913, 0.00000000E+000, -4.37394442E+001, -2.42252145E+001
914, 0.00000000E+000, -2.53167404E+001, -4.31168489E+001
915, 0.00000000E+000, 2.28075353E+001, -1.38412557E+001
916, 0.00000000E+000, 2.29057326E+001, 1.26375246E+001
917, 5.00000000E+002, 2.28674144E+001, 1.37377475E+001
918, 5.00000000E+002, 2.34810323E+001, -1.27703602E+001
919, 5.00000000E+002, -2.30969410E+001, -1.35069811E+001
920, 5.00000000E+002, -2.37450872E+001, 1.27696693E+001
921, 4.55203615E+002, 2.02586210E+001, 4.57120146E+001
922, 4.30732021E+002, 2.14796994E+001, 4.51511076E+001
923, 4.03753204E+002, 2.13783726E+001, 4.51991724E+001
924, 3.76169144E+002, 2.15816953E+001, 4.51024437E+001
925, 3.48596971E+002, 2.15098798E+001, 4.51367375E+001
926, 3.21367593E+002, 2.15657377E+001, 4.51100760E+001
927, 2.94480654E+002, 2.17089411E+001, 4.50413352E+001
928, 2.67956720E+002, 2.18564029E+001, 4.49699639E+001
929, 2.41784633E+002, 2.18562410E+001, 4.49700426E+001
930, 2.15813573E+002, 2.18620099E+001, 4.49672384E+001
931, 1.89800371E+002, 2.19456627E+001, 4.49264720E+001
932, 1.63973605E+002, 2.20875978E+001, 4.48568615E+001
933, 1.38339573E+002, 2.20981791E+001, 4.48516497E+001
934, 1.12527522E+002, 2.21639617E+001, 4.48191789E+001
935, 8.73668993E+001, 2.15500844E+001, 4.51175560E+001
936, 6.12419555E+001, 2.21730130E+001, 4.48147018E+001
937, 3.47758850E+001, 2.16771694E+001, 4.50566347E+001
938, 4.75916262E+002, 3.18200064E+001, 3.85679555E+001
939, 4.75918071E+002, 4.89501308E+001, -1.01923844E+001
940, 4.64389794E+002, 2.30796822E+001, -4.43545744E+001
941, 4.10995812E+002, 2.21285802E+001, -4.48366584E+001
942, 3.58812767E+002, 2.21805095E+001, -4.48109920E+001
943, 3.06266506E+002, 2.21097707E+001, -4.48459367E+001
944, 2.53090563E+002, 2.18049733E+001, -4.49949235E+001
945, 2.00942786E+002, 2.16471205E+001, -4.50710791E+001
946, 1.48085726E+002, 2.14459909E+001, -4.51671282E+001
947, 9.46292476E+001, 2.20147986E+001, -4.48926346E+001
948, 4.45293217E+001, 2.09405458E+001, -4.54036732E+001
949, 2.39904158E+001, 3.27603198E+001, -3.77724959E+001
950, 2.35798966E+001, 4.85483112E+001, 1.19608312E+001
951, 4.75401751E+002, 4.71979843E+001, 1.65030385E+001
952, 4.78032205E+002, 3.89294238E+001, -3.13767424E+001
953, 4.37862177E+002, 2.37067843E+001, -4.40225894E+001
954, 3.84751523E+002, 2.18108972E+001, -4.49920522E+001
955, 3.32683455E+002, 2.22154416E+001, -4.47936843E+001
956, 2.79621279E+002, 2.19169927E+001, -4.49404654E+001
957, 2.26977138E+002, 2.17779378E+001, -4.50080151E+001
958, 1.74673411E+002, 2.16317085E+001, -4.50784781E+001
959, 1.21255511E+002, 2.15305831E+001, -4.51268655E+001
960, 6.84267126E+001, 2.24432553E+001, -4.46799764E+001
961, 2.45796756E+001, 4.76828980E+001, -1.50446415E+001
962, 2.14813117E+001, 3.75043595E+001, 3.30669475E+001
963, 4.17920281E+002, 3.83867112E+001, 3.20384208E+001
964, 3.90204200E+002, 3.89430715E+001, 3.13598020E+001
965, 3.61958615E+002, 3.86996766E+001, 3.16596751E+001
966, 3.35169946E+002, 3.87817506E+001, 3.15590846E+001
967, 3.07909812E+002, 3.86403747E+001, 3.17320256E+001
968, 2.81486504E+002, 3.90180703E+001, 3.12664387E+001
969, 2.54938070E+002, 3.93396513E+001, 3.08608463E+001
970, 2.28681776E+002, 3.93775921E+001, 3.08124202E+001
971, 2.02467694E+002, 3.95814748E+001, 3.05500712E+001
972, 1.76696105E+002, 3.97949809E+001, 3.02714304E+001
973, 1.50961604E+002, 3.98329128E+001, 3.02214999E+001
974, 1.25130318E+002, 3.96339908E+001, 3.04819090E+001
975, 1.00401385E+002, 3.91314746E+001, 3.11243907E+001
976, 7.48818929E+001, 3.88145720E+001, 3.15187088E+001
977, 4.67279430E+001, 4.12317439E+001, 2.82832688E+001
978, 3.97256718E+002, 3.84253001E+001, -3.19921289E+001
979, 4.52833113E+002, 4.99407973E+001, 2.43244102E+000
980, 4.65631297E+001, 4.99974146E+001, -5.08460788E-001
981, 4.48950149E+002, 3.96237785E+001, 3.04951829E+001
982, 3.46133868E+002, 3.94724543E+001, -3.06908023E+001
983, 4.23171014E+002, 3.94704814E+001, -3.06933396E+001
984, 2.93640483E+002, 3.92795055E+001, -3.09373632E+001
985, 2.67348538E+002, 3.92252846E+001, -3.10060809E+001
986, 2.14397307E+002, 3.91070295E+001, -3.11550999E+001
987, 1.62340180E+002, 3.90463829E+001, -3.12310740E+001
988, 1.08965281E+002, 3.91580708E+001, -3.10909229E+001
989, 5.17220856E+001, 4.11527220E+001, -2.83981245E+001
990, 3.19925717E+002, 3.95142760E+001, -3.06369384E+001
991, 4.50967403E+002, 4.27146625E+001, -2.59895672E+001
992, 1.35650997E+002, 3.89564033E+001, -3.13432392E+001
993, 1.88067983E+002, 3.90914426E+001, -3.11746551E+001
994, 3.71974483E+002, 3.91274818E+001, -3.11294101E+001
995, 2.40685251E+002, 3.91561330E+001, -3.10933634E+001
996, 8.20492106E+001, 3.97324115E+001, -3.03535085E+001
997, 1.23920263E+002, 4.87565532E+001, -1.10814492E+001
998, 3.75324457E+002, 4.87928053E+001, 1.09207212E+001
999, 3.47395540E+002, 4.86273358E+001, 1.16353860E+001
1000, 3.21639655E+002, 4.87401460E+001, 1.11533926E+001
1001, 2.94179510E+002, 4.87164432E+001, 1.12564721E+001
1002, 2.67888530E+002, 4.87453112E+001, 1.11307967E+001
1003, 2.41561465E+002, 4.87543572E+001, 1.10911071E+001
1004, 2.15063765E+002, 4.87854043E+001, 1.09537356E+001
1005, 1.89126753E+002, 4.88257427E+001, 1.07725043E+001
1006, 1.63541489E+002, 4.88534985E+001, 1.06459232E+001
1007, 1.37773226E+002, 4.88103444E+001, 1.08420605E+001
1008, 8.78194876E+001, 4.85396957E+001, 1.19957467E+001
1009, 6.51993979E+001, 4.81478956E+001, 1.34825869E+001
1010, 3.85844962E+002, 4.84904685E+001, -1.21932141E+001
1011, 4.08279191E+002, 4.75597021E+001, -1.54296708E+001
1012, 2.54465169E+002, 4.87773693E+001, -1.09894607E+001
1013, 1.75722983E+002, 4.87362867E+001, -1.11702443E+001
1014, 7.17494124E+001, 4.91969493E+001, -8.92525513E+000
1015, 4.29667733E+002, 4.92019168E+001, -8.89783031E+000
1016, 1.50114477E+002, 4.87509883E+001, -1.11059055E+001
1017, 9.78519941E+001, 4.88635217E+001, -1.05998228E+001
1018, 1.12418940E+002, 4.87378664E+001, 1.11633497E+001
1019, 4.31120117E+002, 4.79225055E+001, 1.42630104E+001
1020, 2.27935959E+002, 4.87598569E+001, -1.10669034E+001
1021, 2.01601964E+002, 4.87624514E+001, -1.10554664E+001
1022, 3.59852114E+002, 4.87591164E+001, -1.10701658E+001
1023, 4.05258580E+002, 4.92659119E+001, 8.53638832E+000
1024, 2.80813887E+002, 4.87554078E+001, -1.10864875E+001
1025, 3.07581517E+002, 4.87333709E+001, -1.11829586E+001
1026, 3.33582713E+002, 4.88381926E+001, -1.07159202E+001
1027, 0.00000000E+000, -2.34169080E+001, 1.29201690E+001
1028, 0.00000000E+000, -2.33018947E+001, -1.31483741E+001
1029, 4.58466660E+002, -2.08618262E+001, -4.54398967E+001
1030, 4.36234231E+002, -2.10596765E+001, -4.53485394E+001
1031, 4.10983134E+002, -2.15530194E+001, -4.51161540E+001
1032, 3.85623425E+002, -2.23650461E+001, -4.47191761E+001
1033, 3.58964015E+002, -2.17138468E+001, -4.50389704E+001
1034, 3.32091775E+002, -2.22757900E+001, -4.47637038E+001
1035, 3.05715351E+002, -2.25338957E+001, -4.46343314E+001
1036, 2.79095309E+002, -2.26032546E+001, -4.45992475E+001
1037, 2.52664991E+002, -2.28032291E+001, -4.44973341E+001
1038, 2.26522371E+002, -2.28319445E+001, -4.44826068E+001
1039, 2.00194403E+002, -2.21188954E+001, -4.48414369E+001
1040, 1.74327753E+002, -2.20067668E+001, -4.48965724E+001
1041, 1.47523981E+002, -2.19822846E+001, -4.49085645E+001
1042, 1.20984073E+002, -2.25246533E+001, -4.46389963E+001
1043, 9.46049941E+001, -2.27973973E+001, -4.45003222E+001
1044, 6.92004507E+001, -2.18590265E+001, -4.49686887E+001
1045, 4.46621615E+001, -2.06577431E+001, -4.55330391E+001
1046, 2.09682236E+001, -2.24094375E+001, -4.46969474E+001
1047, 4.77438248E+002, -3.30470945E+001, -3.75218542E+001
1048, 4.75441694E+002, -4.87356784E+001, 1.11728981E+001
1049, 4.61839256E+002, -2.26206796E+001, 4.45904121E+001
1050, 4.03983533E+002, -2.31154802E+001, 4.43359287E+001
1051, 3.48155349E+002, -2.22015088E+001, 4.48005916E+001
1052, 2.93509233E+002, -2.16969434E+001, 4.50471159E+001
1053, 2.41406064E+002, -2.15726635E+001, 4.51067643E+001
1054, 1.89585258E+002, -2.14666188E+001, 4.51573280E+001
1055, 1.38740359E+002, -2.06981115E+001, 4.55147029E+001
1056, 8.86845950E+001, -1.97488490E+001, 4.59345509E+001
1057, 3.99476276E+001, -2.03324840E+001, 4.56792086E+001
1058, 1.81537734E+001, -1.73053621E+001, 4.69097479E+001
1059, 2.20194694E+001, -4.95455755E+001, 6.72576762E+000
1060, 1.88646091E+001, -4.40846204E+001, -2.35912324E+001
1061, 4.75557613E+002, -4.76147127E+001, -1.52590673E+001
1062, 4.76978947E+002, -3.85754590E+001, 3.18109095E+001
1063, 4.32744945E+002, -2.36448157E+001, 4.40559042E+001
1064, 3.75950726E+002, -2.27170211E+001, 4.45414071E+001
1065, 3.20737344E+002, -2.19113873E+001, 4.49431987E+001
1066, 2.67366037E+002, -2.15633543E+001, 4.51112154E+001
1067, 2.15571917E+002, -2.16387867E+001, 4.50750808E+001
1068, 1.64037619E+002, -2.11488885E+001, 4.53070029E+001
1069, 1.13720735E+002, -1.99679294E+001, 4.58397404E+001
1070, 6.39773751E+001, -2.02300415E+001, 4.57246697E+001
1071, 2.54607881E+001, -3.83623914E+001, 3.20675369E+001
1072, 4.25053209E+002, -3.67469382E+001, -3.39066739E+001
1073, 4.00925835E+002, -4.17300209E+001, -2.75427914E+001
1074, 3.72132898E+002, -3.93707141E+001, -3.08212081E+001
1075, 3.44953628E+002, -3.93685399E+001, -3.08239853E+001
1076, 3.18888490E+002, -3.93444524E+001, -3.08547252E+001
1077, 2.92518954E+002, -3.93960646E+001, -3.07887982E+001
1078, 2.66026729E+002, -3.93017240E+001, -3.09091328E+001
1079, 2.39825590E+002, -3.95007576E+001, -3.06543659E+001
1080, 2.13564527E+002, -3.93440792E+001, -3.08552011E+001
1081, 1.87496898E+002, -3.92611861E+001, -3.09606083E+001
1082, 1.61143348E+002, -3.92333986E+001, -3.09958132E+001
1083, 1.34671760E+002, -3.96675783E+001, -3.04381871E+001
1084, 1.07581158E+002, -4.03263971E+001, -2.95597987E+001
1085, 8.12849484E+001, -4.02338677E+001, -2.96856175E+001
1086, 5.70509306E+001, -3.88959329E+001, -3.14182496E+001
1087, 3.61099961E+001, -3.68657848E+001, -3.37774171E+001
1088, 4.17788426E+002, -4.06730160E+001, 2.90810208E+001
1089, 4.51757439E+002, -4.99565524E+001, -2.08395652E+000
1090, 4.50576498E+002, -4.04218592E+001, -2.94291234E+001
1091, 4.49505434E+002, -4.23948104E+001, 2.65081129E+001
1092, 3.34207745E+002, -3.90571514E+001, 3.12176059E+001
1093, 2.79932148E+002, -3.88340059E+001, 3.14947612E+001
1094, 2.27972426E+002, -3.88393207E+001, 3.14882068E+001
1095, 1.76464486E+002, -3.87249298E+001, 3.16287814E+001
1096, 1.25882575E+002, -3.75840305E+001, 3.29763651E+001
1097, 4.56740963E+001, -4.86655601E+001, 1.14744612E+001
1098, 7.75032097E+001, -3.65762351E+001, 3.40907469E+001
1099, 3.06946373E+002, -3.86195654E+001, 3.17573482E+001
1100, 3.61374266E+002, -3.95133849E+001, 3.06380877E+001
1101, 5.33308087E+001, -3.81295757E+001, 3.23440173E+001
1102, 1.01681091E+002, -3.62954601E+001, 3.43895272E+001
1103, 3.89483929E+002, -4.05245061E+001, 2.92876152E+001
1104, 2.54174376E+002, -3.88845915E+001, 3.14322851E+001
1105, 2.02124026E+002, -3.88346061E+001, 3.14940211E+001
1106, 1.51154783E+002, -3.82452888E+001, 3.22071092E+001
1107, 4.06514177E+001, -4.80651306E+001, -1.37747311E+001
1108, 4.03243920E+002, -4.98122214E+001, 4.32927289E+000
1109, 3.82443784E+002, -4.86294062E+001, -1.16267302E+001
1110, 3.58117289E+002, -4.88134187E+001, -1.08282111E+001
1111, 3.32329724E+002, -4.87493076E+001, -1.11132807E+001
1112, 3.05992377E+002, -4.87903606E+001, -1.09316383E+001
1113, 2.79737982E+002, -4.88493948E+001, -1.06647377E+001
1114, 2.53059911E+002, -4.88625451E+001, -1.06043241E+001
1115, 2.27002100E+002, -4.88346712E+001, -1.07319566E+001
1116, 2.00999911E+002, -4.87853372E+001, -1.09540348E+001
1117, 1.74917716E+002, -4.87936135E+001, -1.09171097E+001
1118, 1.48517115E+002, -4.88800355E+001, -1.05234088E+001
1119, 1.21852541E+002, -4.91539947E+001, -9.15886466E+000
1120, 9.22833747E+001, -4.97093386E+001, -5.38346121E+000
1121, 3.19893903E+002, -4.87820323E+001, 1.09687429E+001
1122, 9.04764850E+001, -4.62655754E+001, 1.89603938E+001
1123, 3.73438344E+002, -4.89069746E+001, 1.03974918E+001
1124, 1.36999779E+002, -4.84676073E+001, 1.22837716E+001
1125, 2.66901595E+002, -4.86282441E+001, 1.16315896E+001
1126, 2.14511580E+002, -4.86234167E+001, 1.16517529E+001
1127, 1.12124857E+002, -4.79227981E+001, 1.42620273E+001
1128, 4.26561183E+002, -4.80628804E+001, -1.37825806E+001
1129, 6.47328315E+001, -4.90315371E+001, -9.79328186E+000
1130, 2.92878989E+002, -4.87593558E+001, 1.10691114E+001
1131, 3.46693477E+002, -4.87367668E+001, 1.11681496E+001
1132, 6.97765734E+001, -4.79392854E+001, 1.42065095E+001
1133, 4.29858461E+002, -4.89852041E+001, 1.00224640E+001
1134, 2.40569536E+002, -4.86215927E+001, 1.16593621E+001
1135, 1.88632137E+002, -4.85732246E+001, 1.18592517E+001
1136, 1.62947997E+002, -4.85890314E+001, 1.17943219E+001
**
** Elements ++++++++++++++++++++++++++++++++++++++++++++++++
**
*Element, Type=mics_S4, Elset=mics_z1
510, 517, 507, 536, 608
511, 508, 517, 608, 518
512, 519, 518, 608, 609
513, 520, 519, 609, 610
514, 521, 520, 610, 611
515, 522, 521, 611, 612
516, 523, 522, 612, 613
517, 524, 523, 613, 614
518, 525, 524, 614, 615
519, 526, 525, 615, 616
520, 527, 526, 616, 617
521, 528, 527, 617, 618
522, 529, 528, 618, 619
523, 530, 529, 619, 620
524, 531, 530, 620, 621
525, 532, 531, 621, 622
526, 533, 532, 622, 623
527, 534, 533, 623, 624
528, 509, 534, 624, 535
529, 510, 535, 624, 552
530, 537, 538, 610, 609
531, 539, 540, 612, 611
532, 541, 542, 614, 613
533, 542, 543, 615, 614
534, 543, 544, 616, 615
535, 544, 545, 617, 616
536, 546, 547, 619, 618
537, 548, 549, 621, 620
538, 550, 551, 623, 622
539, 551, 552, 624, 623
540, 610, 538, 539, 611
541, 541, 613, 612, 540
542, 617, 545, 546, 618
543, 619, 547, 548, 620
544, 550, 622, 621, 549
545, 536, 537, 609, 608
546, 553, 508, 518, 625
547, 511, 553, 625, 569
548, 512, 554, 626, 570
549, 554, 555, 627, 626
550, 555, 556, 628, 627
551, 556, 557, 629, 628
552, 557, 558, 630, 629
553, 558, 559, 631, 630
554, 559, 560, 632, 631
555, 560, 561, 633, 632
556, 561, 562, 634, 633
557, 562, 563, 635, 634
558, 563, 564, 636, 635
559, 564, 565, 637, 636
560, 565, 566, 638, 637
561, 566, 567, 639, 638
562, 567, 568, 640, 639
563, 568, 569, 625, 640
564, 509, 570, 626, 534
565, 519, 520, 639, 640
566, 521, 522, 637, 638
567, 523, 524, 635, 636
568, 525, 526, 633, 634
569, 527, 528, 631, 632
571, 531, 532, 628, 629
572, 532, 533, 627, 628
573, 533, 534, 626, 627
574, 527, 632, 633, 526
575, 525, 634, 635, 524
576, 523, 636, 637, 522
577, 521, 638, 639, 520
578, 518, 519, 640, 625
579, 529, 530, 629, 630
580, 529, 630, 631, 528
582, 571, 513, 573, 641
583, 508, 571, 641, 518
584, 519, 518, 641, 642
585, 520, 519, 642, 643
586, 521, 520, 643, 644
587, 522, 521, 644, 645
588, 523, 522, 645, 646
589, 524, 523, 646, 647
590, 525, 524, 647, 648
591, 526, 525, 648, 649
592, 527, 526, 649, 650
593, 528, 527, 650, 651
594, 529, 528, 651, 652
595, 530, 529, 652, 653
596, 531, 530, 653, 654
597, 532, 531, 654, 655
598, 533, 532, 655, 656
599, 534, 533, 656, 657
600, 509, 534, 657, 572
601, 514, 572, 657, 589
602, 574, 575, 643, 642
603, 576, 577, 645, 644
604, 578, 579, 647, 646
605, 580, 581, 649, 648
606, 581, 582, 650, 649
607, 583, 584, 652, 651
608, 585, 586, 654, 653
609, 587, 588, 656, 655
610, 588, 589, 657, 656
611, 643, 575, 576, 644
612, 578, 646, 645, 577
613, 580, 648, 647, 579
614, 650, 582, 583, 651
615, 652, 584, 585, 653
616, 587, 655, 654, 586
617, 573, 574, 642, 641
618, 590, 508, 518, 658
619, 515, 590, 658, 606
620, 516, 591, 659, 607
621, 591, 592, 660, 659
622, 592, 593, 661, 660
623, 593, 594, 662, 661
624, 594, 595, 663, 662
625, 595, 596, 664, 663
626, 596, 597, 665, 664
627, 597, 598, 666, 665
628, 598, 599, 667, 666
629, 599, 600, 668, 667
630, 600, 601, 669, 668
631, 601, 602, 670, 669
632, 602, 603, 671, 670
633, 603, 604, 672, 671
634, 604, 605, 673, 672
635, 605, 606, 658, 673
636, 509, 607, 659, 534
637, 519, 520, 672, 673
638, 521, 522, 670, 671
639, 523, 524, 668, 669
640, 525, 526, 666, 667
641, 527, 528, 664, 665
642, 529, 530, 662, 663
643, 531, 532, 660, 661
644, 533, 534, 659, 660
645, 531, 661, 662, 530
646, 529, 663, 664, 528
647, 527, 665, 666, 526
648, 525, 667, 668, 524
649, 523, 669, 670, 522
650, 521, 671, 672, 520
651, 518, 519, 673, 658
*Element, Type=mics_S3, Elset=mics_z1
570, 530, 531, 629
581, 532, 533, 660
*Element, Type=mics_S4, Elset=mics_z2
652, 674, 684, 780, 702
653, 684, 675, 704, 780
654, 676, 685, 781, 703
655, 685, 686, 782, 781
656, 686, 687, 783, 782
657, 687, 688, 784, 783
658, 688, 689, 785, 784
659, 689, 690, 786, 785
660, 690, 691, 787, 786
661, 691, 692, 788, 787
662, 692, 693, 789, 788
663, 693, 694, 790, 789
664, 694, 695, 791, 790
665, 695, 696, 792, 791
666, 696, 697, 793, 792
667, 697, 698, 794, 793
668, 698, 699, 795, 794
669, 699, 700, 796, 795
670, 700, 701, 797, 796
671, 701, 702, 780, 797
672, 677, 703, 781, 721
673, 704, 705, 797, 780
674, 706, 796, 797, 705
675, 707, 708, 794, 795
676, 720, 721, 781, 782
677, 710, 711, 791, 792
678, 711, 712, 790, 791
679, 712, 713, 789, 790
680, 709, 793, 794, 708
681, 715, 716, 786, 787
682, 717, 718, 784, 785
683, 718, 719, 783, 784
684, 714, 788, 789, 713
685, 714, 715, 787, 788
686, 717, 785, 786, 716
687, 709, 710, 792, 793
688, 720, 782, 783, 719
689, 706, 707, 795, 796
691, 838, 839, 692, 691
693, 836, 837, 689, 688
694, 696, 843, 844, 697
695, 678, 722, 798, 739
697, 679, 723, 799, 740
698, 723, 724, 800, 799
699, 800, 801, 687, 686
700, 802, 803, 690, 689
701, 726, 727, 802, 801
702, 727, 728, 803, 802
703, 728, 729, 804, 803
704, 729, 730, 805, 804
705, 730, 731, 806, 805
706, 731, 732, 807, 806
707, 732, 733, 808, 807
708, 733, 734, 809, 808
709, 734, 735, 810, 809
710, 735, 736, 811, 810
711, 736, 737, 812, 811
712, 737, 738, 813, 812
713, 738, 739, 798, 813
714, 676, 740, 799, 685
715, 724, 725, 801, 800
716, 688, 687, 801, 802
718, 691, 690, 803, 804
719, 692, 691, 804, 805
720, 694, 693, 806, 807
721, 696, 695, 808, 809
722, 698, 697, 810, 811
723, 699, 698, 811, 812
724, 700, 699, 812, 813
725, 701, 700, 813, 798
726, 806, 693, 692, 805
727, 694, 807, 808, 695
728, 696, 809, 810, 697
729, 685, 799, 800, 686
730, 842, 695, 694, 841
732, 702, 701, 798, 722
733, 674, 741, 814, 702
734, 741, 680, 743, 814
735, 676, 685, 815, 742
736, 685, 686, 816, 815
737, 686, 687, 817, 816
738, 687, 688, 818, 817
739, 688, 689, 819, 818
740, 689, 690, 820, 819
741, 690, 691, 821, 820
742, 691, 692, 822, 821
743, 692, 693, 823, 822
744, 693, 694, 824, 823
745, 694, 695, 825, 824
746, 695, 696, 826, 825
747, 696, 697, 827, 826
748, 697, 698, 828, 827
749, 698, 699, 829, 828
750, 699, 700, 830, 829
751, 700, 701, 831, 830
752, 701, 702, 814, 831
753, 681, 742, 815, 759
754, 743, 744, 831, 814
755, 758, 816, 817, 757
756, 746, 747, 827, 828
757, 748, 749, 825, 826
758, 749, 750, 824, 825
759, 750, 751, 823, 824
760, 752, 753, 821, 822
761, 754, 755, 819, 820
762, 756, 757, 817, 818
763, 758, 759, 815, 816
764, 756, 818, 819, 755
765, 754, 820, 821, 753
766, 752, 822, 823, 751
767, 748, 826, 827, 747
768, 746, 828, 829, 745
770, 702, 701, 848, 832
771, 830, 831, 744, 745
772, 682, 760, 832, 778
773, 760, 674, 702, 832
774, 683, 761, 833, 779
775, 761, 762, 834, 833
776, 762, 763, 835, 834
777, 763, 764, 836, 835
778, 765, 766, 837, 836
779, 686, 685, 833, 834
780, 766, 767, 838, 837
781, 767, 768, 839, 838
782, 768, 769, 840, 839
783, 769, 770, 841, 840
784, 770, 771, 842, 841
785, 771, 772, 843, 842
786, 772, 773, 844, 843
787, 773, 774, 845, 844
788, 774, 775, 846, 845
789, 775, 776, 847, 846
790, 776, 777, 848, 847
791, 777, 778, 832, 848
792, 676, 779, 833, 685
793, 686, 834, 835, 687
794, 688, 687, 835, 836
795, 700, 699, 846, 847
796, 690, 689, 837, 838
797, 701, 700, 847, 848
798, 693, 692, 839, 840
799, 694, 693, 840, 841
800, 696, 695, 842, 843
801, 698, 697, 844, 845
802, 699, 698, 845, 846
*Element, Type=mics_S3, Elset=mics_z2
690, 838, 691, 690
692, 764, 765, 836
696, 802, 689, 688
717, 726, 801, 725
731, 674, 702, 722
769, 829, 830, 745
*Element, Type=S3, Elset=bem_z1
803, 853, 849, 860
804, 855, 854, 915
805, 850, 855, 856
806, 857, 856, 915
807, 858, 857, 915
808, 859, 858, 916
809, 860, 859, 916
810, 858, 915, 916
811, 853, 860, 916
812, 856, 855, 915
813, 915, 854, 916
814, 854, 853, 916
815, 861, 851, 868
816, 852, 863, 864
817, 865, 864, 917
818, 866, 865, 917
819, 864, 863, 917
820, 867, 866, 918
821, 868, 867, 918
822, 866, 917, 918
823, 861, 868, 918
824, 862, 861, 918
825, 863, 862, 917
826, 917, 862, 918
827, 869, 851, 861
828, 870, 869, 919
829, 871, 870, 919
830, 869, 861, 919
831, 872, 871, 920
832, 873, 872, 920
833, 871, 919, 920
834, 852, 873, 863
835, 863, 873, 920
836, 861, 862, 919
837, 862, 863, 920
838, 862, 920, 919
839, 874, 852, 864
840, 875, 874, 921
841, 876, 875, 922
842, 875, 921, 922
843, 877, 876, 923
844, 876, 922, 923
845, 878, 877, 924
846, 877, 923, 924
847, 879, 878, 925
848, 878, 924, 925
849, 880, 879, 926
850, 879, 925, 926
851, 881, 880, 927
852, 880, 926, 927
853, 882, 881, 928
854, 881, 927, 928
855, 883, 882, 929
856, 882, 928, 929
857, 884, 883, 930
858, 883, 929, 930
859, 885, 884, 931
860, 884, 930, 931
861, 886, 885, 932
862, 885, 931, 932
863, 887, 886, 933
864, 886, 932, 933
865, 888, 887, 934
866, 887, 933, 934
867, 889, 888, 935
868, 888, 934, 935
869, 890, 889, 936
870, 889, 935, 936
871, 891, 890, 937
872, 890, 936, 937
873, 849, 891, 860
874, 864, 865, 938
875, 866, 867, 939
876, 868, 851, 892
877, 892, 893, 940
878, 894, 895, 941
879, 896, 897, 942
880, 898, 899, 943
881, 900, 901, 944
882, 902, 903, 945
883, 904, 905, 946
884, 906, 907, 947
885, 908, 909, 948
886, 909, 850, 856
887, 856, 857, 949
888, 858, 859, 950
889, 860, 891, 937
890, 868, 892, 940
891, 921, 874, 938
892, 865, 866, 951
893, 938, 874, 864
894, 867, 868, 952
895, 893, 894, 953
896, 895, 896, 954
897, 897, 898, 955
898, 899, 900, 956
899, 901, 902, 957
900, 903, 904, 958
901, 905, 906, 959
902, 907, 908, 960
903, 908, 948, 960
904, 909, 856, 949
905, 857, 858, 961
906, 859, 860, 962
907, 867, 952, 939
908, 941, 895, 954
909, 942, 897, 955
910, 943, 899, 956
911, 944, 901, 957
912, 945, 903, 958
913, 946, 905, 959
914, 947, 907, 960
915, 950, 859, 962
916, 955, 898, 943
917, 956, 900, 944
918, 957, 902, 945
919, 958, 904, 946
920, 959, 906, 947
921, 865, 951, 938
922, 951, 866, 939
923, 954, 896, 942
924, 953, 894, 941
925, 893, 953, 940
926, 961, 858, 950
927, 857, 961, 949
928, 923, 922, 963
929, 924, 923, 964
930, 923, 963, 964
931, 925, 924, 965
932, 924, 964, 965
933, 926, 925, 966
934, 925, 965, 966
935, 927, 926, 967
936, 926, 966, 967
937, 928, 927, 968
938, 927, 967, 968
939, 929, 928, 969
940, 928, 968, 969
941, 930, 929, 970
942, 929, 969, 970
943, 931, 930, 971
944, 930, 970, 971
945, 932, 931, 972
946, 931, 971, 972
947, 933, 932, 973
948, 932, 972, 973
949, 934, 933, 974
950, 933, 973, 974
951, 935, 934, 975
952, 934, 974, 975
953, 936, 935, 976
954, 935, 975, 976
955, 937, 936, 977
956, 936, 976, 977
957, 941, 954, 978
958, 951, 939, 979
959, 868, 940, 952
960, 961, 950, 980
961, 921, 938, 981
962, 922, 921, 981
963, 938, 951, 981
964, 942, 955, 982
965, 953, 941, 983
966, 941, 978, 983
967, 943, 956, 984
968, 956, 944, 985
969, 957, 945, 986
970, 958, 946, 987
971, 959, 947, 988
972, 909, 949, 948
973, 962, 860, 937
974, 949, 961, 989
975, 961, 980, 989
976, 955, 943, 990
977, 982, 955, 990
978, 943, 984, 990
979, 939, 952, 991
980, 962, 937, 977
981, 952, 940, 991
982, 948, 949, 989
983, 987, 946, 992
984, 946, 959, 992
985, 986, 945, 993
986, 945, 958, 993
987, 939, 991, 979
988, 978, 954, 994
989, 954, 942, 994
990, 951, 979, 981
991, 980, 950, 977
992, 922, 981, 963
993, 940, 953, 991
994, 953, 983, 991
995, 984, 956, 985
996, 944, 957, 995
997, 958, 987, 993
998, 959, 988, 992
999, 947, 960, 996
1000, 942, 982, 994
1001, 950, 962, 977
1002, 948, 989, 960
1003, 988, 947, 996
1004, 960, 989, 996
1005, 995, 957, 986
1006, 944, 995, 985
1007, 992, 988, 997
1008, 965, 964, 998
1009, 966, 965, 999
1010, 965, 998, 999
1011, 967, 966, 1000
1012, 966, 999, 1000
1013, 968, 967, 1001
1014, 967, 1000, 1001
1015, 969, 968, 1002
1016, 968, 1001, 1002
1017, 970, 969, 1003
1018, 969, 1002, 1003
1019, 971, 970, 1004
1020, 970, 1003, 1004
1021, 972, 971, 1005
1022, 971, 1004, 1005
1023, 973, 972, 1006
1024, 972, 1005, 1006
1025, 974, 973, 1007
1026, 973, 1006, 1007
1027, 976, 975, 1008
1028, 977, 976, 1009
1029, 980, 977, 1009
1030, 976, 1008, 1009
1031, 978, 994, 1010
1032, 983, 978, 1011
1033, 978, 1010, 1011
1034, 985, 995, 1012
1035, 993, 987, 1013
1036, 989, 980, 1014
1037, 996, 989, 1014
1038, 980, 1009, 1014
1039, 991, 983, 1015
1040, 979, 991, 1015
1041, 983, 1011, 1015
1042, 987, 992, 1016
1043, 1013, 987, 1016
1044, 992, 997, 1016
1045, 988, 996, 1017
1046, 997, 988, 1017
1047, 996, 1014, 1017
1048, 975, 974, 1018
1049, 963, 981, 1019
1050, 981, 979, 1019
1051, 1018, 974, 1007
1052, 975, 1018, 1008
1053, 995, 986, 1020
1054, 986, 993, 1021
1055, 1020, 986, 1021
1056, 993, 1013, 1021
1057, 994, 982, 1022
1058, 964, 963, 1023
1059, 984, 985, 1024
1060, 990, 984, 1025
1061, 1025, 984, 1024
1062, 982, 990, 1026
1063, 1022, 982, 1026
1064, 990, 1025, 1026
1065, 995, 1020, 1012
1066, 963, 1019, 1023
1067, 1019, 979, 1015
1068, 1024, 985, 1012
1069, 994, 1022, 1010
1070, 964, 1023, 998
1071, 1010, 1022, 998
1072, 1008, 1018, 1017
1073, 1000, 999, 1026
1074, 1001, 1000, 1025
1075, 1002, 1001, 1024
1076, 1003, 1002, 1012
1077, 1004, 1003, 1020
1078, 1005, 1004, 1021
1079, 1006, 1005, 1013
1080, 1007, 1006, 1016
1081, 1012, 1002, 1024
1082, 1024, 1001, 1025
1083, 1011, 1010, 1023
1084, 999, 998, 1022
1085, 1025, 1000, 1026
1086, 998, 1023, 1010
1087, 1020, 1003, 1012
1088, 1015, 1011, 1023
1089, 1013, 1005, 1021
1090, 1014, 1009, 1008
1091, 1004, 1020, 1021
1092, 1006, 1013, 1016
1093, 999, 1022, 1026
1094, 1014, 1008, 1017
1095, 1007, 1016, 997
1096, 997, 1017, 1018
1097, 1023, 1019, 1015
1098, 997, 1018, 1007
1099, 910, 849, 853
1100, 911, 910, 1027
1101, 912, 911, 1027
1102, 910, 853, 1027
1103, 913, 912, 1028
1104, 914, 913, 1028
1105, 912, 1027, 1028
1106, 850, 914, 855
1107, 855, 914, 1028
1108, 853, 854, 1027
1109, 854, 855, 1028
1110, 854, 1028, 1027
1111, 892, 851, 869
1112, 893, 892, 1029
1113, 894, 893, 1030
1114, 893, 1029, 1030
1115, 895, 894, 1031
1116, 894, 1030, 1031
1117, 896, 895, 1032
1118, 895, 1031, 1032
1119, 897, 896, 1033
1120, 896, 1032, 1033
1121, 898, 897, 1034
1122, 897, 1033, 1034
1123, 899, 898, 1035
1124, 898, 1034, 1035
1125, 900, 899, 1036
1126, 899, 1035, 1036
1127, 901, 900, 1037
1128, 900, 1036, 1037
1129, 902, 901, 1038
1130, 901, 1037, 1038
1131, 903, 902, 1039
1132, 902, 1038, 1039
1133, 904, 903, 1040
1134, 903, 1039, 1040
1135, 905, 904, 1041
1136, 904, 1040, 1041
1137, 906, 905, 1042
1138, 905, 1041, 1042
1139, 907, 906, 1043
1140, 906, 1042, 1043
1141, 908, 907, 1044
1142, 907, 1043, 1044
1143, 909, 908, 1045
1144, 908, 1044, 1045
1145, 850, 909, 1046
1146, 914, 850, 1046
1147, 909, 1045, 1046
1148, 869, 870, 1047
1149, 871, 872, 1048
1150, 873, 852, 874
1151, 874, 875, 1049
1152, 876, 877, 1050
1153, 878, 879, 1051
1154, 880, 881, 1052
1155, 882, 883, 1053
1156, 884, 885, 1054
1157, 886, 887, 1055
1158, 888, 889, 1056
1159, 890, 891, 1057
1160, 891, 849, 1058
1161, 1057, 891, 1058
1162, 849, 910, 1058
1163, 911, 912, 1059
1164, 913, 914, 1060
1165, 914, 1046, 1060
1166, 873, 874, 1049
1167, 870, 871, 1061
1168, 1061, 871, 1048
1169, 872, 873, 1062
1170, 870, 1061, 1047
1171, 875, 876, 1063
1172, 877, 878, 1064
1173, 879, 880, 1065
1174, 881, 882, 1066
1175, 883, 884, 1067
1176, 885, 886, 1068
1177, 887, 888, 1069
1178, 888, 1056, 1069
1179, 889, 890, 1070
1180, 910, 911, 1071
1181, 913, 1060, 912
1182, 1064, 878, 1051
1183, 875, 1063, 1049
1184, 892, 869, 1047
1185, 1050, 877, 1064
1186, 1051, 879, 1065
1187, 1052, 881, 1066
1188, 1053, 883, 1067
1189, 1054, 885, 1068
1190, 1055, 887, 1069
1191, 1056, 889, 1070
1192, 1059, 912, 1060
1193, 1065, 880, 1052
1194, 1066, 882, 1053
1195, 1067, 884, 1054
1196, 1068, 886, 1055
1197, 1071, 911, 1059
1198, 872, 1062, 1048
1199, 1063, 876, 1050
1200, 1070, 890, 1057
1201, 1029, 892, 1047
1202, 873, 1049, 1062
1203, 1031, 1030, 1072
1204, 1032, 1031, 1073
1205, 1031, 1072, 1073
1206, 1033, 1032, 1074
1207, 1032, 1073, 1074
1208, 1034, 1033, 1075
1209, 1033, 1074, 1075
1210, 1035, 1034, 1076
1211, 1034, 1075, 1076
1212, 1036, 1035, 1077
1213, 1035, 1076, 1077
1214, 1037, 1036, 1078
1215, 1036, 1077, 1078
1216, 1038, 1037, 1079
1217, 1037, 1078, 1079
1218, 1039, 1038, 1080
1219, 1038, 1079, 1080
1220, 1040, 1039, 1081
1221, 1039, 1080, 1081
1222, 1041, 1040, 1082
1223, 1040, 1081, 1082
1224, 1042, 1041, 1083
1225, 1041, 1082, 1083
1226, 1043, 1042, 1084
1227, 1042, 1083, 1084
1228, 1044, 1043, 1085
1229, 1043, 1084, 1085
1230, 1045, 1044, 1086
1231, 1044, 1085, 1086
1232, 1046, 1045, 1087
1233, 1060, 1046, 1087
1234, 1045, 1086, 1087
1235, 1063, 1050, 1088
1236, 1061, 1048, 1089
1237, 1047, 1061, 1090
1238, 1062, 1049, 1091
1239, 1051, 1065, 1092
1240, 1049, 1063, 1091
1241, 1052, 1066, 1093
1242, 1053, 1067, 1094
1243, 1054, 1068, 1095
1244, 1055, 1069, 1096
1245, 1071, 1059, 1097
1246, 1056, 1070, 1098
1247, 1029, 1047, 1090
1248, 910, 1071, 1058
1249, 1057, 1058, 1071
1250, 1048, 1062, 1091
1251, 1065, 1052, 1099
1252, 1052, 1093, 1099
1253, 1064, 1051, 1100
1254, 1051, 1092, 1100
1255, 1030, 1029, 1090
1256, 1057, 1071, 1101
1257, 1070, 1057, 1101
1258, 1071, 1097, 1101
1259, 1069, 1056, 1102
1260, 1056, 1098, 1102
1261, 1072, 1030, 1090
1262, 1089, 1048, 1091
1263, 1061, 1089, 1090
1264, 1050, 1064, 1103
1265, 1092, 1065, 1099
1266, 1063, 1088, 1091
1267, 1064, 1100, 1103
1268, 1066, 1053, 1104
1269, 1067, 1054, 1105
1270, 1068, 1055, 1106
1271, 1069, 1102, 1096
1272, 1070, 1101, 1098
1273, 1059, 1060, 1107
1274, 1050, 1103, 1088
1275, 1059, 1107, 1097
1276, 1095, 1068, 1106
1277, 1094, 1067, 1105
1278, 1066, 1104, 1093
1279, 1106, 1055, 1096
1280, 1105, 1054, 1095
1281, 1104, 1053, 1094
1282, 1072, 1128, 1073
1283, 1060, 1087, 1107
1284, 1074, 1073, 1109
1285, 1073, 1108, 1109
1286, 1075, 1074, 1110
1287, 1074, 1109, 1110
1288, 1076, 1075, 1111
1289, 1075, 1110, 1111
1290, 1077, 1076, 1112
1291, 1076, 1111, 1112
1292, 1078, 1077, 1113
1293, 1077, 1112, 1113
1294, 1079, 1078, 1114
1295, 1078, 1113, 1114
1296, 1080, 1079, 1115
1297, 1079, 1114, 1115
1298, 1081, 1080, 1116
1299, 1080, 1115, 1116
1300, 1082, 1081, 1117
1301, 1081, 1116, 1117
1302, 1083, 1082, 1118
1303, 1082, 1117, 1118
1304, 1084, 1083, 1119
1305, 1083, 1118, 1119
1306, 1085, 1084, 1120
1307, 1084, 1119, 1120
1308, 1087, 1086, 1107
1309, 1092, 1099, 1121
1310, 1102, 1098, 1122
1311, 1103, 1100, 1123
1312, 1106, 1096, 1124
1313, 1093, 1104, 1125
1314, 1094, 1105, 1126
1315, 1096, 1102, 1127
1316, 1124, 1096, 1127
1317, 1102, 1122, 1127
1318, 1072, 1090, 1128
1319, 1108, 1073, 1128
1320, 1090, 1089, 1128
1321, 1107, 1086, 1129
1322, 1097, 1107, 1129
1323, 1086, 1085, 1129
1324, 1088, 1103, 1108
1325, 1099, 1093, 1130
1326, 1121, 1099, 1130
1327, 1093, 1125, 1130
1328, 1100, 1092, 1131
1329, 1123, 1100, 1131
1330, 1092, 1121, 1131
1331, 1101, 1097, 1132
1332, 1098, 1101, 1132
1333, 1097, 1129, 1132
1334, 1098, 1132, 1122
1335, 1091, 1088, 1133
1336, 1089, 1091, 1133
1337, 1129, 1085, 1120
1338, 1104, 1094, 1134
1339, 1105, 1095, 1135
1340, 1095, 1106, 1136
1341, 1136, 1106, 1124
1342, 1126, 1105, 1135
1343, 1135, 1095, 1136
1344, 1134, 1094, 1126
1345, 1104, 1134, 1125
1346, 1110, 1109, 1123
1347, 1111, 1110, 1131
1348, 1112, 1111, 1121
1349, 1113, 1112, 1130
1350, 1114, 1113, 1125
1351, 1115, 1114, 1134
1352, 1116, 1115, 1126
1353, 1117, 1116, 1135
1354, 1118, 1117, 1136
1355, 1119, 1118, 1124
1356, 1120, 1119, 1127
1357, 1129, 1120, 1132
1358, 1110, 1123, 1131
1359, 1128, 1089, 1133
1360, 1121, 1111, 1131
1361, 1103, 1123, 1108
1362, 1126, 1135, 1116
1363, 1125, 1134, 1114
1364, 1135, 1136, 1117
1365, 1134, 1126, 1115
1366, 1124, 1118, 1136
1367, 1125, 1113, 1130
1368, 1112, 1121, 1130
1369, 1119, 1124, 1127
1370, 1133, 1088, 1108
1371, 1109, 1108, 1123
1372, 1132, 1120, 1122
1373, 1108, 1128, 1133
1374, 1122, 1120, 1127
*Element, Type=S3, Elset=bem_z2
1375, 1, 5, 12
1376, 5, 6, 65
1377, 12, 5, 65
1378, 6, 7, 65
1379, 7, 8, 66
1380, 65, 7, 66
1381, 8, 9, 66
1382, 9, 2, 10
1383, 10, 11, 66
1384, 11, 12, 65
1385, 9, 10, 66
1386, 66, 11, 65
1387, 10, 2, 13
1388, 12, 11, 67
1389, 1, 12, 17
1390, 13, 14, 68
1391, 10, 13, 68
1392, 14, 15, 68
1393, 15, 16, 67
1394, 16, 17, 67
1395, 17, 12, 67
1396, 67, 11, 68
1397, 11, 10, 68
1398, 68, 15, 67
1399, 5, 1, 34
1400, 6, 5, 69
1401, 7, 6, 70
1402, 6, 69, 70
1403, 8, 7, 71
1404, 7, 70, 71
1405, 9, 8, 72
1406, 8, 71, 72
1407, 2, 9, 56
1408, 19, 18, 73
1409, 20, 19, 74
1410, 19, 73, 74
1411, 21, 20, 75
1412, 20, 74, 75
1413, 22, 21, 76
1414, 21, 75, 76
1415, 23, 22, 77
1416, 22, 76, 77
1417, 24, 23, 78
1418, 23, 77, 78
1419, 25, 24, 79
1420, 24, 78, 79
1421, 26, 25, 80
1422, 25, 79, 80
1423, 27, 26, 81
1424, 26, 80, 81
1425, 28, 27, 82
1426, 27, 81, 82
1427, 29, 28, 83
1428, 28, 82, 83
1429, 30, 29, 84
1430, 29, 83, 84
1431, 31, 30, 85
1432, 30, 84, 85
1433, 32, 31, 86
1434, 31, 85, 86
1435, 33, 32, 87
1436, 32, 86, 87
1437, 56, 9, 72
1438, 35, 4, 40
1439, 36, 35, 88
1440, 37, 36, 89
1441, 36, 88, 89
1442, 38, 37, 90
1443, 37, 89, 90
1444, 39, 38, 91
1445, 38, 90, 91
1446, 40, 41, 92
1447, 42, 43, 93
1448, 44, 45, 94
1449, 46, 47, 95
1450, 48, 49, 96
1451, 50, 51, 97
1452, 52, 53, 98
1453, 54, 55, 99
1454, 55, 56, 100
1455, 99, 55, 100
1456, 56, 72, 100
1457, 5, 34, 69
1458, 35, 40, 88
1459, 18, 3, 101
1460, 34, 33, 102
1461, 18, 101, 73
1462, 92, 41, 103
1463, 41, 42, 103
1464, 3, 39, 101
1465, 42, 93, 103
1466, 43, 44, 104
1467, 45, 46, 105
1468, 47, 48, 106
1469, 49, 50, 107
1470, 51, 52, 108
1471, 53, 54, 109
1472, 54, 99, 109
1473, 108, 52, 98
1474, 33, 87, 102
1475, 94, 45, 105
1476, 95, 47, 106
1477, 96, 49, 107
1478, 97, 51, 108
1479, 98, 53, 109
1480, 107, 50, 97
1481, 43, 104, 93
1482, 106, 48, 96
1483, 105, 46, 95
1484, 104, 44, 94
1485, 88, 40, 92
1486, 103, 93, 110
1487, 71, 70, 111
1488, 72, 71, 112
1489, 100, 72, 112
1490, 71, 111, 112
1491, 74, 73, 113
1492, 92, 103, 114
1493, 103, 110, 114
1494, 75, 74, 115
1495, 74, 113, 115
1496, 76, 75, 116
1497, 75, 115, 116
1498, 77, 76, 117
1499, 76, 116, 117
1500, 78, 77, 118
1501, 77, 117, 118
1502, 79, 78, 119
1503, 78, 118, 119
1504, 80, 79, 120
1505, 79, 119, 120
1506, 81, 80, 121
1507, 80, 120, 121
1508, 82, 81, 122
1509, 81, 121, 122
1510, 83, 82, 123
1511, 82, 122, 123
1512, 84, 83, 124
1513, 83, 123, 124
1514, 85, 84, 125
1515, 84, 124, 125
1516, 86, 85, 126
1517, 85, 125, 126
1518, 87, 86, 127
1519, 86, 126, 127
1520, 106, 96, 128
1521, 39, 91, 101
1522, 90, 89, 129
1523, 88, 92, 114
1524, 95, 106, 130
1525, 106, 128, 130
1526, 104, 94, 131
1527, 105, 95, 132
1528, 95, 130, 132
1529, 97, 108, 133
1530, 93, 104, 134
1531, 110, 93, 134
1532, 104, 131, 134
1533, 98, 109, 135
1534, 107, 97, 136
1535, 97, 133, 136
1536, 108, 98, 137
1537, 133, 108, 137
1538, 98, 135, 137
1539, 94, 105, 138
1540, 105, 132, 138
1541, 70, 69, 139
1542, 101, 91, 73
1543, 73, 91, 113
1544, 135, 109, 140
1545, 109, 99, 140
1546, 94, 138, 131
1547, 34, 102, 69
1548, 128, 96, 141
1549, 96, 107, 141
1550, 89, 88, 114
1551, 129, 89, 114
1552, 91, 90, 113
1553, 87, 127, 139
1554, 111, 70, 139
1555, 90, 129, 113
1556, 69, 102, 139
1557, 141, 107, 136
1558, 87, 139, 102
1559, 99, 100, 142
1560, 140, 99, 142
1561, 100, 112, 142
1562, 128, 141, 143
1563, 116, 115, 144
1564, 117, 116, 145
1565, 116, 144, 145
1566, 118, 117, 146
1567, 117, 145, 146
1568, 119, 118, 147
1569, 118, 146, 147
1570, 120, 119, 148
1571, 119, 147, 148
1572, 121, 120, 149
1573, 120, 148, 149
1574, 122, 121, 143
1575, 124, 123, 150
1576, 125, 124, 151
1577, 126, 125, 152
1578, 125, 151, 152
1579, 127, 126, 153
1580, 126, 152, 153
1581, 129, 114, 154
1582, 113, 129, 154
1583, 114, 110, 154
1584, 139, 127, 155
1585, 111, 139, 155
1586, 127, 153, 155
1587, 136, 133, 150
1588, 141, 136, 156
1589, 143, 141, 156
1590, 136, 150, 156
1591, 131, 138, 157
1592, 128, 143, 149
1593, 133, 137, 151
1594, 115, 113, 154
1595, 151, 124, 150
1596, 122, 143, 156
1597, 121, 149, 143
1598, 122, 156, 123
1599, 154, 110, 144
1600, 132, 130, 158
1601, 112, 111, 159
1602, 142, 112, 159
1603, 111, 155, 159
1604, 150, 133, 151
1605, 130, 128, 149
1606, 138, 132, 160
1607, 150, 123, 156
1608, 140, 142, 159
1609, 137, 135, 152
1610, 144, 115, 154
1611, 157, 138, 160
1612, 135, 140, 161
1613, 161, 140, 159
1614, 159, 155, 161
1615, 146, 145, 157
1616, 147, 146, 160
1617, 148, 147, 158
1618, 144, 110, 162
1619, 157, 160, 146
1620, 131, 157, 162
1621, 132, 158, 160
1622, 134, 131, 162
1623, 151, 137, 152
1624, 161, 155, 153
1625, 152, 135, 161
1626, 158, 147, 160
1627, 157, 145, 162
1628, 144, 162, 145
1629, 130, 149, 148
1630, 153, 152, 161
1631, 130, 148, 158
1632, 110, 134, 162
1633, 4, 35, 59
1634, 35, 36, 163
1635, 59, 35, 163
1636, 36, 37, 163
1637, 37, 38, 164
1638, 163, 37, 164
1639, 38, 39, 164
1640, 39, 3, 57
1641, 57, 58, 164
1642, 58, 59, 163
1643, 39, 57, 164
1644, 164, 58, 163
1645, 57, 3, 60
1646, 59, 58, 165
1647, 4, 59, 64
1648, 60, 61, 166
1649, 57, 60, 166
1650, 61, 62, 166
1651, 62, 63, 165
1652, 63, 64, 165
1653, 64, 59, 165
1654, 165, 58, 166
1655, 58, 57, 166
1656, 166, 62, 165
1657, 13, 2, 56
1658, 14, 13, 167
1659, 15, 14, 168
1660, 14, 167, 168
1661, 16, 15, 169
1662, 15, 168, 169
1663, 17, 16, 170
1664, 16, 169, 170
1665, 1, 17, 34
1666, 40, 4, 64
1667, 41, 40, 171
1668, 42, 41, 172
1669, 41, 171, 172
1670, 43, 42, 173
1671, 42, 172, 173
1672, 44, 43, 174
1673, 43, 173, 174
1674, 45, 44, 175
1675, 44, 174, 175
1676, 46, 45, 176
1677, 45, 175, 176
1678, 47, 46, 177
1679, 46, 176, 177
1680, 48, 47, 178
1681, 47, 177, 178
1682, 49, 48, 179
1683, 48, 178, 179
1684, 50, 49, 180
1685, 49, 179, 180
1686, 51, 50, 181
1687, 50, 180, 181
1688, 52, 51, 182
1689, 51, 181, 182
1690, 53, 52, 183
1691, 52, 182, 183
1692, 54, 53, 184
1693, 53, 183, 184
1694, 55, 54, 185
1695, 54, 184, 185
1696, 34, 17, 170
1697, 60, 3, 18
1698, 61, 60, 186
1699, 62, 61, 187
1700, 61, 186, 187
1701, 63, 62, 188
1702, 62, 187, 188
1703, 18, 19, 189
1704, 20, 21, 190
1705, 22, 23, 191
1706, 24, 25, 192
1707, 26, 27, 193
1708, 28, 29, 194
1709, 30, 31, 195
1710, 32, 33, 196
1711, 33, 34, 197
1712, 196, 33, 197
1713, 34, 170, 197
1714, 40, 64, 171
1715, 13, 56, 167
1716, 60, 18, 198
1717, 190, 21, 199
1718, 21, 22, 199
1719, 56, 55, 200
1720, 189, 19, 201
1721, 19, 20, 201
1722, 64, 63, 202
1723, 55, 185, 200
1724, 63, 188, 202
1725, 20, 190, 201
1726, 22, 191, 199
1727, 23, 24, 203
1728, 24, 192, 203
1729, 25, 26, 204
1730, 27, 28, 205
1731, 29, 30, 206
1732, 30, 195, 206
1733, 31, 32, 207
1734, 23, 203, 191
1735, 192, 25, 204
1736, 193, 27, 205
1737, 194, 29, 206
1738, 195, 31, 207
1739, 205, 28, 194
1740, 204, 26, 193
1741, 207, 32, 196
1742, 190, 199, 208
1743, 169, 168, 209
1744, 170, 169, 210
1745, 197, 170, 210
1746, 169, 209, 210
1747, 192, 204, 211
1748, 172, 171, 212
1749, 171, 64, 202
1750, 173, 172, 213
1751, 172, 212, 213
1752, 174, 173, 214
1753, 173, 213, 214
1754, 175, 174, 215
1755, 174, 214, 215
1756, 176, 175, 216
1757, 175, 215, 216
1758, 177, 176, 217
1759, 178, 177, 218
1760, 177, 217, 218
1761, 179, 178, 219
1762, 178, 218, 219
1763, 180, 179, 220
1764, 179, 219, 220
1765, 181, 180, 221
1766, 180, 220, 221
1767, 182, 181, 222
1768, 181, 221, 222
1769, 183, 182, 223
1770, 182, 222, 223
1771, 184, 183, 224
1772, 183, 223, 224
1773, 185, 184, 225
1774, 184, 224, 225
1775, 189, 201, 226
1776, 18, 189, 198
1777, 188, 187, 227
1778, 201, 190, 228
1779, 226, 201, 228
1780, 190, 208, 228
1781, 200, 185, 229
1782, 185, 225, 229
1783, 206, 195, 230
1784, 203, 192, 231
1785, 192, 211, 231
1786, 193, 205, 232
1787, 207, 196, 233
1788, 194, 206, 234
1789, 206, 230, 234
1790, 204, 193, 235
1791, 211, 204, 235
1792, 193, 232, 235
1793, 195, 207, 236
1794, 207, 233, 236
1795, 205, 194, 237
1796, 232, 205, 237
1797, 194, 234, 237
1798, 191, 203, 238
1799, 203, 231, 238
1800, 199, 191, 239
1801, 208, 199, 239
1802, 191, 238, 239
1803, 171, 202, 212
1804, 60, 198, 186
1805, 195, 236, 230
1806, 176, 216, 217
1807, 167, 56, 200
1808, 167, 200, 229
1809, 202, 188, 212
1810, 198, 189, 240
1811, 186, 198, 240
1812, 189, 226, 240
1813, 187, 186, 240
1814, 227, 187, 240
1815, 167, 229, 168
1816, 209, 168, 229
1817, 212, 188, 227
1818, 196, 197, 241
1819, 233, 196, 241
1820, 197, 210, 241
1821, 213, 212, 242
1822, 212, 227, 242
1823, 214, 213, 243
1824, 213, 242, 243
1825, 215, 214, 244
1826, 214, 243, 244
1827, 219, 218, 245
1828, 220, 219, 246
1829, 219, 245, 246
1830, 221, 220, 247
1831, 220, 246, 247
1832, 222, 221, 248
1833, 221, 247, 248
1834, 223, 222, 249
1835, 222, 248, 249
1836, 224, 223, 250
1837, 223, 249, 250
1838, 225, 224, 251
1839, 224, 250, 251
1840, 229, 225, 252
1841, 209, 229, 252
1842, 225, 251, 252
1843, 230, 236, 253
1844, 231, 211, 254
1845, 217, 216, 255
1846, 218, 217, 256
1847, 236, 233, 257
1848, 245, 218, 256
1849, 216, 215, 258
1850, 240, 226, 227
1851, 226, 228, 242
1852, 217, 255, 256
1853, 216, 258, 255
1854, 208, 239, 244
1855, 210, 209, 259
1856, 241, 210, 259
1857, 209, 252, 259
1858, 238, 231, 260
1859, 232, 237, 261
1860, 208, 244, 243
1861, 226, 242, 227
1862, 233, 241, 259
1863, 253, 236, 257
1864, 234, 230, 262
1865, 228, 208, 243
1866, 258, 215, 244
1867, 233, 259, 257
1868, 262, 230, 253
1869, 257, 259, 252
1870, 243, 242, 228
1871, 257, 252, 251
1872, 238, 260, 263
1873, 248, 247, 261
1874, 249, 248, 262
1875, 250, 249, 262
1876, 251, 250, 253
1877, 238, 263, 239
1878, 263, 260, 255
1879, 251, 253, 257
1880, 250, 262, 253
1881, 255, 260, 256
1882, 254, 211, 264
1883, 261, 247, 265
1884, 232, 261, 265
1885, 247, 246, 265
1886, 231, 254, 260
1887, 265, 246, 264
1888, 254, 264, 245
1889, 211, 235, 264
1890, 245, 264, 246
1891, 255, 258, 263
1892, 258, 244, 263
1893, 235, 232, 265
1894, 237, 234, 266
1895, 265, 264, 235
1896, 263, 244, 239
1897, 234, 262, 266
1898, 245, 256, 254
1899, 260, 254, 256
1900, 237, 266, 261
1901, 248, 261, 266
1902, 262, 248, 266
**
** Node sets +++++++++++++++++++++++++++++++++++++++++++++++
**
*Nset, Nset=Internal-1_inlet
849, 850, 853, 854, 855, 856, 857, 858, 859, 860, 910, 911, 912, 913, 914, 915,
916, 1027, 1028
*Nset, Nset=Internal-1_outlet
3, 4, 35, 36, 37, 38, 39, 57, 58, 59, 60, 61, 62, 63, 64, 163,
164, 165, 166
*Nset, Nset=Internal-1_Internal_Selection-1_Tie-1_Master
1, 2, 5, 6, 7, 8, 9, 10, 11, 12, 13, 14, 15, 16, 17, 65,
66, 67, 68
*Nset, Nset=Internal-1_Internal_Selection-1_Tie-1_Slave
851, 852, 861, 862, 863, 864, 865, 866, 867, 868, 869, 870, 871, 872, 873, 917,
918, 919, 920
**
** Element sets ++++++++++++++++++++++++++++++++++++++++++++
**
*Elset, Elset=z1_bem
803, 804, 805, 806, 807, 808, 809, 810, 811, 812, 813, 814, 815, 816, 817, 818,
819, 820, 821, 822, 823, 824, 825, 826, 827, 828, 829, 830, 831, 832, 833, 834,
835, 836, 837, 838, 839, 840, 841, 842, 843, 844, 845, 846, 847, 848, 849, 850,
851, 852, 853, 854, 855, 856, 857, 858, 859, 860, 861, 862, 863, 864, 865, 866,
867, 868, 869, 870, 871, 872, 873, 874, 875, 876, 877, 878, 879, 880, 881, 882,
883, 884, 885, 886, 887, 888, 889, 890, 891, 892, 893, 894, 895, 896, 897, 898,
899, 900, 901, 902, 903, 904, 905, 906, 907, 908, 909, 910, 911, 912, 913, 914,
915, 916, 917, 918, 919, 920, 921, 922, 923, 924, 925, 926, 927, 928, 929, 930,
931, 932, 933, 934, 935, 936, 937, 938, 939, 940, 941, 942, 943, 944, 945, 946,
947, 948, 949, 950, 951, 952, 953, 954, 955, 956, 957, 958, 959, 960, 961, 962,
963, 964, 965, 966, 967, 968, 969, 970, 971, 972, 973, 974, 975, 976, 977, 978,
979, 980, 981, 982, 983, 984, 985, 986, 987, 988, 989, 990, 991, 992, 993, 994,
995, 996, 997, 998, 999, 1000, 1001, 1002, 1003, 1004, 1005, 1006, 1007, 1008, 1009, 1010,
1011, 1012, 1013, 1014, 1015, 1016, 1017, 1018, 1019, 1020, 1021, 1022, 1023, 1024, 1025, 1026,
1027, 1028, 1029, 1030, 1031, 1032, 1033, 1034, 1035, 1036, 1037, 1038, 1039, 1040, 1041, 1042,
1043, 1044, 1045, 1046, 1047, 1048, 1049, 1050, 1051, 1052, 1053, 1054, 1055, 1056, 1057, 1058,
1059, 1060, 1061, 1062, 1063, 1064, 1065, 1066, 1067, 1068, 1069, 1070, 1071, 1072, 1073, 1074,
1075, 1076, 1077, 1078, 1079, 1080, 1081, 1082, 1083, 1084, 1085, 1086, 1087, 1088, 1089, 1090,
1091, 1092, 1093, 1094, 1095, 1096, 1097, 1098, 1099, 1100, 1101, 1102, 1103, 1104, 1105, 1106,
1107, 1108, 1109, 1110, 1111, 1112, 1113, 1114, 1115, 1116, 1117, 1118, 1119, 1120, 1121, 1122,
1123, 1124, 1125, 1126, 1127, 1128, 1129, 1130, 1131, 1132, 1133, 1134, 1135, 1136, 1137, 1138,
1139, 1140, 1141, 1142, 1143, 1144, 1145, 1146, 1147, 1148, 1149, 1150, 1151, 1152, 1153, 1154,
1155, 1156, 1157, 1158, 1159, 1160, 1161, 1162, 1163, 1164, 1165, 1166, 1167, 1168, 1169, 1170,
1171, 1172, 1173, 1174, 1175, 1176, 1177, 1178, 1179, 1180, 1181, 1182, 1183, 1184, 1185, 1186,
1187, 1188, 1189, 1190, 1191, 1192, 1193, 1194, 1195, 1196, 1197, 1198, 1199, 1200, 1201, 1202,
1203, 1204, 1205, 1206, 1207, 1208, 1209, 1210, 1211, 1212, 1213, 1214, 1215, 1216, 1217, 1218,
1219, 1220, 1221, 1222, 1223, 1224, 1225, 1226, 1227, 1228, 1229, 1230, 1231, 1232, 1233, 1234,
1235, 1236, 1237, 1238, 1239, 1240, 1241, 1242, 1243, 1244, 1245, 1246, 1247, 1248, 1249, 1250,
1251, 1252, 1253, 1254, 1255, 1256, 1257, 1258, 1259, 1260, 1261, 1262, 1263, 1264, 1265, 1266,
1267, 1268, 1269, 1270, 1271, 1272, 1273, 1274, 1275, 1276, 1277, 1278, 1279, 1280, 1281, 1282,
1283, 1284, 1285, 1286, 1287, 1288, 1289, 1290, 1291, 1292, 1293, 1294, 1295, 1296, 1297, 1298,
1299, 1300, 1301, 1302, 1303, 1304, 1305, 1306, 1307, 1308, 1309, 1310, 1311, 1312, 1313, 1314,
1315, 1316, 1317, 1318, 1319, 1320, 1321, 1322, 1323, 1324, 1325, 1326, 1327, 1328, 1329, 1330,
1331, 1332, 1333, 1334, 1335, 1336, 1337, 1338, 1339, 1340, 1341, 1342, 1343, 1344, 1345, 1346,
1347, 1348, 1349, 1350, 1351, 1352, 1353, 1354, 1355, 1356, 1357, 1358, 1359, 1360, 1361, 1362,
1363, 1364, 1365, 1366, 1367, 1368, 1369, 1370, 1371, 1372, 1373, 1374
*Elset, Elset=z2_bem
1375, 1376, 1377, 1378, 1379, 1380, 1381, 1382, 1383, 1384, 1385, 1386, 1387, 1388, 1389, 1390,
1391, 1392, 1393, 1394, 1395, 1396, 1397, 1398, 1399, 1400, 1401, 1402, 1403, 1404, 1405, 1406,
1407, 1408, 1409, 1410, 1411, 1412, 1413, 1414, 1415, 1416, 1417, 1418, 1419, 1420, 1421, 1422,
1423, 1424, 1425, 1426, 1427, 1428, 1429, 1430, 1431, 1432, 1433, 1434, 1435, 1436, 1437, 1438,
1439, 1440, 1441, 1442, 1443, 1444, 1445, 1446, 1447, 1448, 1449, 1450, 1451, 1452, 1453, 1454,
1455, 1456, 1457, 1458, 1459, 1460, 1461, 1462, 1463, 1464, 1465, 1466, 1467, 1468, 1469, 1470,
1471, 1472, 1473, 1474, 1475, 1476, 1477, 1478, 1479, 1480, 1481, 1482, 1483, 1484, 1485, 1486,
1487, 1488, 1489, 1490, 1491, 1492, 1493, 1494, 1495, 1496, 1497, 1498, 1499, 1500, 1501, 1502,
1503, 1504, 1505, 1506, 1507, 1508, 1509, 1510, 1511, 1512, 1513, 1514, 1515, 1516, 1517, 1518,
1519, 1520, 1521, 1522, 1523, 1524, 1525, 1526, 1527, 1528, 1529, 1530, 1531, 1532, 1533, 1534,
1535, 1536, 1537, 1538, 1539, 1540, 1541, 1542, 1543, 1544, 1545, 1546, 1547, 1548, 1549, 1550,
1551, 1552, 1553, 1554, 1555, 1556, 1557, 1558, 1559, 1560, 1561, 1562, 1563, 1564, 1565, 1566,
1567, 1568, 1569, 1570, 1571, 1572, 1573, 1574, 1575, 1576, 1577, 1578, 1579, 1580, 1581, 1582,
1583, 1584, 1585, 1586, 1587, 1588, 1589, 1590, 1591, 1592, 1593, 1594, 1595, 1596, 1597, 1598,
1599, 1600, 1601, 1602, 1603, 1604, 1605, 1606, 1607, 1608, 1609, 1610, 1611, 1612, 1613, 1614,
1615, 1616, 1617, 1618, 1619, 1620, 1621, 1622, 1623, 1624, 1625, 1626, 1627, 1628, 1629, 1630,
1631, 1632, 1633, 1634, 1635, 1636, 1637, 1638, 1639, 1640, 1641, 1642, 1643, 1644, 1645, 1646,
1647, 1648, 1649, 1650, 1651, 1652, 1653, 1654, 1655, 1656, 1657, 1658, 1659, 1660, 1661, 1662,
1663, 1664, 1665, 1666, 1667, 1668, 1669, 1670, 1671, 1672, 1673, 1674, 1675, 1676, 1677, 1678,
1679, 1680, 1681, 1682, 1683, 1684, 1685, 1686, 1687, 1688, 1689, 1690, 1691, 1692, 1693, 1694,
1695, 1696, 1697, 1698, 1699, 1700, 1701, 1702, 1703, 1704, 1705, 1706, 1707, 1708, 1709, 1710,
1711, 1712, 1713, 1714, 1715, 1716, 1717, 1718, 1719, 1720, 1721, 1722, 1723, 1724, 1725, 1726,
1727, 1728, 1729, 1730, 1731, 1732, 1733, 1734, 1735, 1736, 1737, 1738, 1739, 1740, 1741, 1742,
1743, 1744, 1745, 1746, 1747, 1748, 1749, 1750, 1751, 1752, 1753, 1754, 1755, 1756, 1757, 1758,
1759, 1760, 1761, 1762, 1763, 1764, 1765, 1766, 1767, 1768, 1769, 1770, 1771, 1772, 1773, 1774,
1775, 1776, 1777, 1778, 1779, 1780, 1781, 1782, 1783, 1784, 1785, 1786, 1787, 1788, 1789, 1790,
1791, 1792, 1793, 1794, 1795, 1796, 1797, 1798, 1799, 1800, 1801, 1802, 1803, 1804, 1805, 1806,
1807, 1808, 1809, 1810, 1811, 1812, 1813, 1814, 1815, 1816, 1817, 1818, 1819, 1820, 1821, 1822,
1823, 1824, 1825, 1826, 1827, 1828, 1829, 1830, 1831, 1832, 1833, 1834, 1835, 1836, 1837, 1838,
1839, 1840, 1841, 1842, 1843, 1844, 1845, 1846, 1847, 1848, 1849, 1850, 1851, 1852, 1853, 1854,
1855, 1856, 1857, 1858, 1859, 1860, 1861, 1862, 1863, 1864, 1865, 1866, 1867, 1868, 1869, 1870,
1871, 1872, 1873, 1874, 1875, 1876, 1877, 1878, 1879, 1880, 1881, 1882, 1883, 1884, 1885, 1886,
1887, 1888, 1889, 1890, 1891, 1892, 1893, 1894, 1895, 1896, 1897, 1898, 1899, 1900, 1901, 1902
*Elset, Elset=z1_mics
510, 511, 512, 513, 514, 515, 516, 517, 518, 519, 520, 521, 522, 523, 524, 525,
526, 527, 528, 529, 530, 531, 532, 533, 534, 535, 536, 537, 538, 539, 540, 541,
542, 543, 544, 545, 546, 547, 548, 549, 550, 551, 552, 553, 554, 555, 556, 557,
558, 559, 560, 561, 562, 563, 564, 565, 566, 567, 568, 569, 570, 571, 572, 573,
574, 575, 576, 577, 578, 579, 580, 581, 582, 583, 584, 585, 586, 587, 588, 589,
590, 591, 592, 593, 594, 595, 596, 597, 598, 599, 600, 601, 602, 603, 604, 605,
606, 607, 608, 609, 610, 611, 612, 613, 614, 615, 616, 617, 618, 619, 620, 621,
622, 623, 624, 625, 626, 627, 628, 629, 630, 631, 632, 633, 634, 635, 636, 637,
638, 639, 640, 641, 642, 643, 644, 645, 646, 647, 648, 649, 650, 651
*Elset, Elset=z2_mics
652, 653, 654, 655, 656, 657, 658, 659, 660, 661, 662, 663, 664, 665, 666, 667,
668, 669, 670, 671, 672, 673, 674, 675, 676, 677, 678, 679, 680, 681, 682, 683,
684, 685, 686, 687, 688, 689, 690, 691, 692, 693, 694, 695, 696, 697, 698, 699,
700, 701, 702, 703, 704, 705, 706, 707, 708, 709, 710, 711, 712, 713, 714, 715,
716, 717, 718, 719, 720, 721, 722, 723, 724, 725, 726, 727, 728, 729, 730, 731,
732, 733, 734, 735, 736, 737, 738, 739, 740, 741, 742, 743, 744, 745, 746, 747,
748, 749, 750, 751, 752, 753, 754, 755, 756, 757, 758, 759, 760, 761, 762, 763,
764, 765, 766, 767, 768, 769, 770, 771, 772, 773, 774, 775, 776, 777, 778, 779,
780, 781, 782, 783, 784, 785, 786, 787, 788, 789, 790, 791, 792, 793, 794, 795,
796, 797, 798, 799, 800, 801, 802
*Elset, Elset=Internal-1_inlet_S2
803, 804, 805, 806, 807, 808, 809, 810, 811, 812, 813, 814, 1099, 1100, 1101, 1102,
1103, 1104, 1105, 1106, 1107, 1108, 1109, 1110
*Elset, Elset=Internal-1_outlet_S2
1633, 1634, 1635, 1636, 1637, 1638, 1639, 1640, 1641, 1642, 1643, 1644, 1645, 1646, 1647, 1648,
1649, 1650, 1651, 1652, 1653, 1654, 1655, 1656
*Elset, Elset=Internal-1_Internal_Selection-1_Tie-1_Master_S2
1375, 1376, 1377, 1378, 1379, 1380, 1381, 1382, 1383, 1384, 1385, 1386, 1387, 1388, 1389, 1390,
1391, 1392, 1393, 1394, 1395, 1396, 1397, 1398
*Elset, Elset=Internal-1_Internal_Selection-1_Tie-1_Slave_S2
815, 816, 817, 818, 819, 820, 821, 822, 823, 824, 825, 826, 827, 828, 829, 830,
831, 832, 833, 834, 835, 836, 837, 838
**
** Surfaces ++++++++++++++++++++++++++++++++++++++++++++++++
**
*Surface, Name=inlet, Type=Element
Internal-1_inlet_S2, S2
*Surface, Name=outlet, Type=Element
Internal-1_outlet_S2, S2
*Surface, Name=Internal_Selection-1_Tie-1_Master, Type=Element
Internal-1_Internal_Selection-1_Tie-1_Master_S2, S2
*Surface, Name=Internal_Selection-1_Tie-1_Slave, Type=Element
Internal-1_Internal_Selection-1_Tie-1_Slave_S2, S2
**
** Physical constants ++++++++++++++++++++++++++++++++++++++
**
**
** Coordinate systems ++++++++++++++++++++++++++++++++++++++
**
**
** Materials +++++++++++++++++++++++++++++++++++++++++++++++
**
*Material, Name=z1_Air
*Density
1.21E-12
*Acoustic Medium
 0.1424,
** Bulk modulus (B): c = sqrt(B/Rho)
*Material, Name=z2_Air
*Density
1.21E-12
*Acoustic Medium
 0.1424,
** Bulk modulus (B): c = sqrt(B/Rho)
**
** Sections ++++++++++++++++++++++++++++++++++++++++++++++++
**
*Shell section, Elset=z1_bem, Material=z1_Air, Offset=0
1
*Shell section, Elset=z2_bem, Material=z2_Air, Offset=0
1
*Shell section, Elset=z1_mics, Material=z1_Air, Offset=0
1
*Shell section, Elset=z2_mics, Material=z2_Air, Offset=0
1
**
** Pre-tension sections ++++++++++++++++++++++++++++++++++++
**
**
** Constraints +++++++++++++++++++++++++++++++++++++++++++++
**
*Tie, Name=Tie-1, Position tolerance=1
Internal_Selection-1_Tie-1_Slave, Internal_Selection-1_Tie-1_Master
**
** Surface interactions ++++++++++++++++++++++++++++++++++++
**
**
** Contact pairs +++++++++++++++++++++++++++++++++++++++++++
**
**
** Amplitudes ++++++++++++++++++++++++++++++++++++++++++++++
**
**
** Initial conditions ++++++++++++++++++++++++++++++++++++++
**
**
** Steps +++++++++++++++++++++++++++++++++++++++++++++++++++
**
**
** Step-1 ++++++++++++++++++++++++++++++++++++++++++++++++++
**
*Step
*Steady state dynamics
20, 1200, 119, 1
** 20, 1200, 1181, 1
**
** Damping +++++++++++++++++++++++++++++++++++++++++++++++++
**
*Modal damping
1, 1000000, 0.01
**
** Controls ++++++++++++++++++++++++++++++++++++++++++++++++
**
**
** Output frequency ++++++++++++++++++++++++++++++++++++++++
**
**
** Boundary conditions +++++++++++++++++++++++++++++++++++++
**
*Boundary, op=New
** Ac. pressure DoF = 8
** *Boundary, Load case=1
** inlet, 8, 8, 2E-11
** outlet, 8, 8, 2E-11
**
** Acoustic Impedance - on a Surface
*Impedance, Load case=1
** inlet, 4.1503e-7
outlet, 4.1503e-7
**
**
** Loads +++++++++++++++++++++++++++++++++++++++++++++++++++
**
*Cload, op=New
*Dload, op=New
** Name: Vels: Deactivated
** Acoustic Vels - on a Surface - DoF = 8
*Cload, Load case=1
inlet, 8, 5e-5
**
**
** Defined fields ++++++++++++++++++++++++++++++++++++++++++
**
**
** History outputs +++++++++++++++++++++++++++++++++++++++++
**
**
** Field outputs +++++++++++++++++++++++++++++++++++++++++++
**
**
** End step ++++++++++++++++++++++++++++++++++++++++++++++++
**
*End step
